   68
Lattice="8.52000000 0.00000000 0.00000000 0.00000000 22.67609717 0.00000000 0.00000000 0.00000000 3.00000000 " nsc="3 1 1" pbc="T F F" boundary_condition="PERIODIC PERIODIC  UNKNOWN UNKNOWN  UNKNOWN UNKNOWN"
C   0.00000000  2.72975607  1.50000000
C   0.00000000  5.18926822  1.50000000
C   0.00000000  7.64878037  1.50000000
C   0.00000000  10.10829251  1.50000000
C   0.00000000  12.56780466  1.50000000
C   0.00000000  15.02731681  1.50000000
C   0.00000000  17.48682895  1.50000000
C   0.00000000  19.94634110  1.50000000
C   0.71000000  1.50000000  1.50000000
C   0.71000000  3.95951215  1.50000000
C   0.71000000  6.41902429  1.50000000
C   0.71000000  8.87853644  1.50000000
C   0.71000000  11.33804859  1.50000000
C   0.71000000  13.79756073  1.50000000
C   0.71000000  16.25707288  1.50000000
C   0.71000000  18.71658503  1.50000000
C   0.71000000  21.17609717  1.50000000
C   2.13000000  1.50000000  1.50000000
C   2.13000000  3.95951215  1.50000000
C   2.13000000  6.41902429  1.50000000
C   2.13000000  8.87853644  1.50000000
C   2.13000000  11.33804859  1.50000000
C   2.13000000  13.79756073  1.50000000
C   2.13000000  16.25707288  1.50000000
C   2.13000000  18.71658503  1.50000000
C   2.13000000  21.17609717  1.50000000
C   2.84000000  2.72975607  1.50000000
C   2.84000000  5.18926822  1.50000000
C   2.84000000  7.64878037  1.50000000
C   2.84000000  10.10829251  1.50000000
C   2.84000000  12.56780466  1.50000000
C   2.84000000  15.02731681  1.50000000
C   2.84000000  17.48682895  1.50000000
C   2.84000000  19.94634110  1.50000000
C   4.26000000  2.72975607  1.50000000
C   4.26000000  5.18926822  1.50000000
C   4.26000000  7.64878037  1.50000000
C   4.26000000  10.10829251  1.50000000
C   4.26000000  12.56780466  1.50000000
C   4.26000000  15.02731681  1.50000000
C   4.26000000  17.48682895  1.50000000
C   4.26000000  19.94634110  1.50000000
C   4.97000000  1.50000000  1.50000000
C   4.97000000  3.95951215  1.50000000
C   4.97000000  6.41902429  1.50000000
C   4.97000000  8.87853644  1.50000000
C   4.97000000  11.33804859  1.50000000
C   4.97000000  13.79756073  1.50000000
C   4.97000000  16.25707288  1.50000000
C   4.97000000  18.71658503  1.50000000
C   4.97000000  21.17609717  1.50000000
C   6.39000000  1.50000000  1.50000000
C   6.39000000  3.95951215  1.50000000
C   6.39000000  6.41902429  1.50000000
C   6.39000000  8.87853644  1.50000000
C   6.39000000  11.33804859  1.50000000
C   6.39000000  13.79756073  1.50000000
C   6.39000000  16.25707288  1.50000000
C   6.39000000  18.71658503  1.50000000
C   6.39000000  21.17609717  1.50000000
C   7.10000000  2.72975607  1.50000000
C   7.10000000  5.18926822  1.50000000
C   7.10000000  7.64878037  1.50000000
C   7.10000000  10.10829251  1.50000000
C   7.10000000  12.56780466  1.50000000
C   7.10000000  15.02731681  1.50000000
C   7.10000000  17.48682895  1.50000000
C   7.10000000  19.94634110  1.50000000
