   2548
Lattice="110.76000000 0.00000000 0.00000000 0.00000000 62.02829152 0.00000000 0.00000000 0.00000000 3.00000000 " nsc="3 1 1" pbc="T F F" boundary_condition="PERIODIC PERIODIC  UNKNOWN UNKNOWN  UNKNOWN UNKNOWN"
C   0.00000000  2.72975607  1.50000000
C   0.00000000  5.18926822  1.50000000
C   0.00000000  7.64878037  1.50000000
C   0.00000000  10.10829251  1.50000000
C   0.00000000  12.56780466  1.50000000
C   0.00000000  15.02731681  1.50000000
C   0.00000000  17.48682895  1.50000000
C   0.00000000  19.94634110  1.50000000
C   0.00000000  22.40585325  1.50000000
C   0.00000000  24.86536539  1.50000000
C   0.00000000  27.32487754  1.50000000
C   0.00000000  29.78438969  1.50000000
C   0.00000000  32.24390183  1.50000000
C   0.00000000  34.70341398  1.50000000
C   0.00000000  37.16292613  1.50000000
C   0.00000000  39.62243827  1.50000000
C   0.00000000  42.08195042  1.50000000
C   0.00000000  44.54146257  1.50000000
C   0.00000000  47.00097471  1.50000000
C   0.00000000  49.46048686  1.50000000
C   0.00000000  51.91999901  1.50000000
C   0.00000000  54.37951116  1.50000000
C   0.00000000  56.83902330  1.50000000
C   0.00000000  59.29853545  1.50000000
C   0.71000000  1.50000000  1.50000000
C   0.71000000  3.95951215  1.50000000
C   0.71000000  6.41902429  1.50000000
C   0.71000000  8.87853644  1.50000000
C   0.71000000  11.33804859  1.50000000
C   0.71000000  13.79756073  1.50000000
C   0.71000000  16.25707288  1.50000000
C   0.71000000  18.71658503  1.50000000
C   0.71000000  21.17609717  1.50000000
C   0.71000000  23.63560932  1.50000000
C   0.71000000  26.09512147  1.50000000
C   0.71000000  28.55463361  1.50000000
C   0.71000000  31.01414576  1.50000000
C   0.71000000  33.47365791  1.50000000
C   0.71000000  35.93317005  1.50000000
C   0.71000000  38.39268220  1.50000000
C   0.71000000  40.85219435  1.50000000
C   0.71000000  43.31170649  1.50000000
C   0.71000000  45.77121864  1.50000000
C   0.71000000  48.23073079  1.50000000
C   0.71000000  50.69024293  1.50000000
C   0.71000000  53.14975508  1.50000000
C   0.71000000  55.60926723  1.50000000
C   0.71000000  58.06877938  1.50000000
C   0.71000000  60.52829152  1.50000000
C   2.13000000  1.50000000  1.50000000
C   2.13000000  3.95951215  1.50000000
C   2.13000000  6.41902429  1.50000000
C   2.13000000  8.87853644  1.50000000
C   2.13000000  11.33804859  1.50000000
C   2.13000000  13.79756073  1.50000000
C   2.13000000  16.25707288  1.50000000
C   2.13000000  18.71658503  1.50000000
C   2.13000000  21.17609717  1.50000000
C   2.13000000  23.63560932  1.50000000
C   2.13000000  26.09512147  1.50000000
C   2.13000000  28.55463361  1.50000000
C   2.13000000  31.01414576  1.50000000
C   2.13000000  33.47365791  1.50000000
C   2.13000000  35.93317005  1.50000000
C   2.13000000  38.39268220  1.50000000
C   2.13000000  40.85219435  1.50000000
C   2.13000000  43.31170649  1.50000000
C   2.13000000  45.77121864  1.50000000
C   2.13000000  48.23073079  1.50000000
C   2.13000000  50.69024293  1.50000000
C   2.13000000  53.14975508  1.50000000
C   2.13000000  55.60926723  1.50000000
C   2.13000000  58.06877938  1.50000000
C   2.13000000  60.52829152  1.50000000
C   2.84000000  2.72975607  1.50000000
C   2.84000000  5.18926822  1.50000000
C   2.84000000  7.64878037  1.50000000
C   2.84000000  10.10829251  1.50000000
C   2.84000000  12.56780466  1.50000000
C   2.84000000  15.02731681  1.50000000
C   2.84000000  17.48682895  1.50000000
C   2.84000000  19.94634110  1.50000000
C   2.84000000  22.40585325  1.50000000
C   2.84000000  24.86536539  1.50000000
C   2.84000000  27.32487754  1.50000000
C   2.84000000  29.78438969  1.50000000
C   2.84000000  32.24390183  1.50000000
C   2.84000000  34.70341398  1.50000000
C   2.84000000  37.16292613  1.50000000
C   2.84000000  39.62243827  1.50000000
C   2.84000000  42.08195042  1.50000000
C   2.84000000  44.54146257  1.50000000
C   2.84000000  47.00097471  1.50000000
C   2.84000000  49.46048686  1.50000000
C   2.84000000  51.91999901  1.50000000
C   2.84000000  54.37951116  1.50000000
C   2.84000000  56.83902330  1.50000000
C   2.84000000  59.29853545  1.50000000
C   4.26000000  2.72975607  1.50000000
C   4.26000000  5.18926822  1.50000000
C   4.26000000  7.64878037  1.50000000
C   4.26000000  10.10829251  1.50000000
C   4.26000000  12.56780466  1.50000000
C   4.26000000  15.02731681  1.50000000
C   4.26000000  17.48682895  1.50000000
C   4.26000000  19.94634110  1.50000000
C   4.26000000  22.40585325  1.50000000
C   4.26000000  24.86536539  1.50000000
C   4.26000000  27.32487754  1.50000000
C   4.26000000  29.78438969  1.50000000
C   4.26000000  32.24390183  1.50000000
C   4.26000000  34.70341398  1.50000000
C   4.26000000  37.16292613  1.50000000
C   4.26000000  39.62243827  1.50000000
C   4.26000000  42.08195042  1.50000000
C   4.26000000  44.54146257  1.50000000
C   4.26000000  47.00097471  1.50000000
C   4.26000000  49.46048686  1.50000000
C   4.26000000  51.91999901  1.50000000
C   4.26000000  54.37951116  1.50000000
C   4.26000000  56.83902330  1.50000000
C   4.26000000  59.29853545  1.50000000
C   4.97000000  1.50000000  1.50000000
C   4.97000000  3.95951215  1.50000000
C   4.97000000  6.41902429  1.50000000
C   4.97000000  8.87853644  1.50000000
C   4.97000000  11.33804859  1.50000000
C   4.97000000  13.79756073  1.50000000
C   4.97000000  16.25707288  1.50000000
C   4.97000000  18.71658503  1.50000000
C   4.97000000  21.17609717  1.50000000
C   4.97000000  23.63560932  1.50000000
C   4.97000000  26.09512147  1.50000000
C   4.97000000  28.55463361  1.50000000
C   4.97000000  31.01414576  1.50000000
C   4.97000000  33.47365791  1.50000000
C   4.97000000  35.93317005  1.50000000
C   4.97000000  38.39268220  1.50000000
C   4.97000000  40.85219435  1.50000000
C   4.97000000  43.31170649  1.50000000
C   4.97000000  45.77121864  1.50000000
C   4.97000000  48.23073079  1.50000000
C   4.97000000  50.69024293  1.50000000
C   4.97000000  53.14975508  1.50000000
C   4.97000000  55.60926723  1.50000000
C   4.97000000  58.06877938  1.50000000
C   4.97000000  60.52829152  1.50000000
C   6.39000000  1.50000000  1.50000000
C   6.39000000  3.95951215  1.50000000
C   6.39000000  6.41902429  1.50000000
C   6.39000000  8.87853644  1.50000000
C   6.39000000  11.33804859  1.50000000
C   6.39000000  13.79756073  1.50000000
C   6.39000000  16.25707288  1.50000000
C   6.39000000  18.71658503  1.50000000
C   6.39000000  21.17609717  1.50000000
C   6.39000000  23.63560932  1.50000000
C   6.39000000  26.09512147  1.50000000
C   6.39000000  28.55463361  1.50000000
C   6.39000000  31.01414576  1.50000000
C   6.39000000  33.47365791  1.50000000
C   6.39000000  35.93317005  1.50000000
C   6.39000000  38.39268220  1.50000000
C   6.39000000  40.85219435  1.50000000
C   6.39000000  43.31170649  1.50000000
C   6.39000000  45.77121864  1.50000000
C   6.39000000  48.23073079  1.50000000
C   6.39000000  50.69024293  1.50000000
C   6.39000000  53.14975508  1.50000000
C   6.39000000  55.60926723  1.50000000
C   6.39000000  58.06877938  1.50000000
C   6.39000000  60.52829152  1.50000000
C   7.10000000  2.72975607  1.50000000
C   7.10000000  5.18926822  1.50000000
C   7.10000000  7.64878037  1.50000000
C   7.10000000  10.10829251  1.50000000
C   7.10000000  12.56780466  1.50000000
C   7.10000000  15.02731681  1.50000000
C   7.10000000  17.48682895  1.50000000
C   7.10000000  19.94634110  1.50000000
C   7.10000000  22.40585325  1.50000000
C   7.10000000  24.86536539  1.50000000
C   7.10000000  27.32487754  1.50000000
C   7.10000000  29.78438969  1.50000000
C   7.10000000  32.24390183  1.50000000
C   7.10000000  34.70341398  1.50000000
C   7.10000000  37.16292613  1.50000000
C   7.10000000  39.62243827  1.50000000
C   7.10000000  42.08195042  1.50000000
C   7.10000000  44.54146257  1.50000000
C   7.10000000  47.00097471  1.50000000
C   7.10000000  49.46048686  1.50000000
C   7.10000000  51.91999901  1.50000000
C   7.10000000  54.37951116  1.50000000
C   7.10000000  56.83902330  1.50000000
C   7.10000000  59.29853545  1.50000000
C   8.52000000  2.72975607  1.50000000
C   8.52000000  5.18926822  1.50000000
C   8.52000000  7.64878037  1.50000000
C   8.52000000  10.10829251  1.50000000
C   8.52000000  12.56780466  1.50000000
C   8.52000000  15.02731681  1.50000000
C   8.52000000  17.48682895  1.50000000
C   8.52000000  19.94634110  1.50000000
C   8.52000000  22.40585325  1.50000000
C   8.52000000  24.86536539  1.50000000
C   8.52000000  27.32487754  1.50000000
C   8.52000000  29.78438969  1.50000000
C   8.52000000  32.24390183  1.50000000
C   8.52000000  34.70341398  1.50000000
C   8.52000000  37.16292613  1.50000000
C   8.52000000  39.62243827  1.50000000
C   8.52000000  42.08195042  1.50000000
C   8.52000000  44.54146257  1.50000000
C   8.52000000  47.00097471  1.50000000
C   8.52000000  49.46048686  1.50000000
C   8.52000000  51.91999901  1.50000000
C   8.52000000  54.37951116  1.50000000
C   8.52000000  56.83902330  1.50000000
C   8.52000000  59.29853545  1.50000000
C   9.23000000  1.50000000  1.50000000
C   9.23000000  3.95951215  1.50000000
C   9.23000000  6.41902429  1.50000000
C   9.23000000  8.87853644  1.50000000
C   9.23000000  11.33804859  1.50000000
C   9.23000000  13.79756073  1.50000000
C   9.23000000  16.25707288  1.50000000
C   9.23000000  18.71658503  1.50000000
C   9.23000000  21.17609717  1.50000000
C   9.23000000  23.63560932  1.50000000
C   9.23000000  26.09512147  1.50000000
C   9.23000000  28.55463361  1.50000000
C   9.23000000  31.01414576  1.50000000
C   9.23000000  33.47365791  1.50000000
C   9.23000000  35.93317005  1.50000000
C   9.23000000  38.39268220  1.50000000
C   9.23000000  40.85219435  1.50000000
C   9.23000000  43.31170649  1.50000000
C   9.23000000  45.77121864  1.50000000
C   9.23000000  48.23073079  1.50000000
C   9.23000000  50.69024293  1.50000000
C   9.23000000  53.14975508  1.50000000
C   9.23000000  55.60926723  1.50000000
C   9.23000000  58.06877938  1.50000000
C   9.23000000  60.52829152  1.50000000
C   10.65000000  1.50000000  1.50000000
C   10.65000000  3.95951215  1.50000000
C   10.65000000  6.41902429  1.50000000
C   10.65000000  8.87853644  1.50000000
C   10.65000000  11.33804859  1.50000000
C   10.65000000  13.79756073  1.50000000
C   10.65000000  16.25707288  1.50000000
C   10.65000000  18.71658503  1.50000000
C   10.65000000  21.17609717  1.50000000
C   10.65000000  23.63560932  1.50000000
C   10.65000000  26.09512147  1.50000000
C   10.65000000  28.55463361  1.50000000
C   10.65000000  31.01414576  1.50000000
C   10.65000000  33.47365791  1.50000000
C   10.65000000  35.93317005  1.50000000
C   10.65000000  38.39268220  1.50000000
C   10.65000000  40.85219435  1.50000000
C   10.65000000  43.31170649  1.50000000
C   10.65000000  45.77121864  1.50000000
C   10.65000000  48.23073079  1.50000000
C   10.65000000  50.69024293  1.50000000
C   10.65000000  53.14975508  1.50000000
C   10.65000000  55.60926723  1.50000000
C   10.65000000  58.06877938  1.50000000
C   10.65000000  60.52829152  1.50000000
C   11.36000000  2.72975607  1.50000000
C   11.36000000  5.18926822  1.50000000
C   11.36000000  7.64878037  1.50000000
C   11.36000000  10.10829251  1.50000000
C   11.36000000  12.56780466  1.50000000
C   11.36000000  15.02731681  1.50000000
C   11.36000000  17.48682895  1.50000000
C   11.36000000  19.94634110  1.50000000
C   11.36000000  22.40585325  1.50000000
C   11.36000000  24.86536539  1.50000000
C   11.36000000  27.32487754  1.50000000
C   11.36000000  29.78438969  1.50000000
C   11.36000000  32.24390183  1.50000000
C   11.36000000  34.70341398  1.50000000
C   11.36000000  37.16292613  1.50000000
C   11.36000000  39.62243827  1.50000000
C   11.36000000  42.08195042  1.50000000
C   11.36000000  44.54146257  1.50000000
C   11.36000000  47.00097471  1.50000000
C   11.36000000  49.46048686  1.50000000
C   11.36000000  51.91999901  1.50000000
C   11.36000000  54.37951116  1.50000000
C   11.36000000  56.83902330  1.50000000
C   11.36000000  59.29853545  1.50000000
C   12.78000000  2.72975607  1.50000000
C   12.78000000  5.18926822  1.50000000
C   12.78000000  7.64878037  1.50000000
C   12.78000000  10.10829251  1.50000000
C   12.78000000  12.56780466  1.50000000
C   12.78000000  15.02731681  1.50000000
C   12.78000000  17.48682895  1.50000000
C   12.78000000  19.94634110  1.50000000
C   12.78000000  22.40585325  1.50000000
C   12.78000000  24.86536539  1.50000000
C   12.78000000  27.32487754  1.50000000
C   12.78000000  29.78438969  1.50000000
C   12.78000000  32.24390183  1.50000000
C   12.78000000  34.70341398  1.50000000
C   12.78000000  37.16292613  1.50000000
C   12.78000000  39.62243827  1.50000000
C   12.78000000  42.08195042  1.50000000
C   12.78000000  44.54146257  1.50000000
C   12.78000000  47.00097471  1.50000000
C   12.78000000  49.46048686  1.50000000
C   12.78000000  51.91999901  1.50000000
C   12.78000000  54.37951116  1.50000000
C   12.78000000  56.83902330  1.50000000
C   12.78000000  59.29853545  1.50000000
C   13.49000000  1.50000000  1.50000000
C   13.49000000  3.95951215  1.50000000
C   13.49000000  6.41902429  1.50000000
C   13.49000000  8.87853644  1.50000000
C   13.49000000  11.33804859  1.50000000
C   13.49000000  13.79756073  1.50000000
C   13.49000000  16.25707288  1.50000000
C   13.49000000  18.71658503  1.50000000
C   13.49000000  21.17609717  1.50000000
C   13.49000000  23.63560932  1.50000000
C   13.49000000  26.09512147  1.50000000
C   13.49000000  28.55463361  1.50000000
C   13.49000000  31.01414576  1.50000000
C   13.49000000  33.47365791  1.50000000
C   13.49000000  35.93317005  1.50000000
C   13.49000000  38.39268220  1.50000000
C   13.49000000  40.85219435  1.50000000
C   13.49000000  43.31170649  1.50000000
C   13.49000000  45.77121864  1.50000000
C   13.49000000  48.23073079  1.50000000
C   13.49000000  50.69024293  1.50000000
C   13.49000000  53.14975508  1.50000000
C   13.49000000  55.60926723  1.50000000
C   13.49000000  58.06877938  1.50000000
C   13.49000000  60.52829152  1.50000000
C   14.91000000  1.50000000  1.50000000
C   14.91000000  3.95951215  1.50000000
C   14.91000000  6.41902429  1.50000000
C   14.91000000  8.87853644  1.50000000
C   14.91000000  11.33804859  1.50000000
C   14.91000000  13.79756073  1.50000000
C   14.91000000  16.25707288  1.50000000
C   14.91000000  18.71658503  1.50000000
C   14.91000000  21.17609717  1.50000000
C   14.91000000  23.63560932  1.50000000
C   14.91000000  26.09512147  1.50000000
C   14.91000000  28.55463361  1.50000000
C   14.91000000  31.01414576  1.50000000
C   14.91000000  33.47365791  1.50000000
C   14.91000000  35.93317005  1.50000000
C   14.91000000  38.39268220  1.50000000
C   14.91000000  40.85219435  1.50000000
C   14.91000000  43.31170649  1.50000000
C   14.91000000  45.77121864  1.50000000
C   14.91000000  48.23073079  1.50000000
C   14.91000000  50.69024293  1.50000000
C   14.91000000  53.14975508  1.50000000
C   14.91000000  55.60926723  1.50000000
C   14.91000000  58.06877938  1.50000000
C   14.91000000  60.52829152  1.50000000
C   15.62000000  2.72975607  1.50000000
C   15.62000000  5.18926822  1.50000000
C   15.62000000  7.64878037  1.50000000
C   15.62000000  10.10829251  1.50000000
C   15.62000000  12.56780466  1.50000000
C   15.62000000  15.02731681  1.50000000
C   15.62000000  17.48682895  1.50000000
C   15.62000000  19.94634110  1.50000000
C   15.62000000  22.40585325  1.50000000
C   15.62000000  24.86536539  1.50000000
C   15.62000000  27.32487754  1.50000000
C   15.62000000  29.78438969  1.50000000
C   15.62000000  32.24390183  1.50000000
C   15.62000000  34.70341398  1.50000000
C   15.62000000  37.16292613  1.50000000
C   15.62000000  39.62243827  1.50000000
C   15.62000000  42.08195042  1.50000000
C   15.62000000  44.54146257  1.50000000
C   15.62000000  47.00097471  1.50000000
C   15.62000000  49.46048686  1.50000000
C   15.62000000  51.91999901  1.50000000
C   15.62000000  54.37951116  1.50000000
C   15.62000000  56.83902330  1.50000000
C   15.62000000  59.29853545  1.50000000
C   17.04000000  2.72975607  1.50000000
C   17.04000000  5.18926822  1.50000000
C   17.04000000  7.64878037  1.50000000
C   17.04000000  10.10829251  1.50000000
C   17.04000000  12.56780466  1.50000000
C   17.04000000  15.02731681  1.50000000
C   17.04000000  17.48682895  1.50000000
C   17.04000000  19.94634110  1.50000000
C   17.04000000  22.40585325  1.50000000
C   17.04000000  24.86536539  1.50000000
C   17.04000000  27.32487754  1.50000000
C   17.04000000  29.78438969  1.50000000
C   17.04000000  32.24390183  1.50000000
C   17.04000000  34.70341398  1.50000000
C   17.04000000  37.16292613  1.50000000
C   17.04000000  39.62243827  1.50000000
C   17.04000000  42.08195042  1.50000000
C   17.04000000  44.54146257  1.50000000
C   17.04000000  47.00097471  1.50000000
C   17.04000000  49.46048686  1.50000000
C   17.04000000  51.91999901  1.50000000
C   17.04000000  54.37951116  1.50000000
C   17.04000000  56.83902330  1.50000000
C   17.04000000  59.29853545  1.50000000
C   17.75000000  1.50000000  1.50000000
C   17.75000000  3.95951215  1.50000000
C   17.75000000  6.41902429  1.50000000
C   17.75000000  8.87853644  1.50000000
C   17.75000000  11.33804859  1.50000000
C   17.75000000  13.79756073  1.50000000
C   17.75000000  16.25707288  1.50000000
C   17.75000000  18.71658503  1.50000000
C   17.75000000  21.17609717  1.50000000
C   17.75000000  23.63560932  1.50000000
C   17.75000000  26.09512147  1.50000000
C   17.75000000  28.55463361  1.50000000
C   17.75000000  31.01414576  1.50000000
C   17.75000000  33.47365791  1.50000000
C   17.75000000  35.93317005  1.50000000
C   17.75000000  38.39268220  1.50000000
C   17.75000000  40.85219435  1.50000000
C   17.75000000  43.31170649  1.50000000
C   17.75000000  45.77121864  1.50000000
C   17.75000000  48.23073079  1.50000000
C   17.75000000  50.69024293  1.50000000
C   17.75000000  53.14975508  1.50000000
C   17.75000000  55.60926723  1.50000000
C   17.75000000  58.06877938  1.50000000
C   17.75000000  60.52829152  1.50000000
C   19.17000000  1.50000000  1.50000000
C   19.17000000  3.95951215  1.50000000
C   19.17000000  6.41902429  1.50000000
C   19.17000000  8.87853644  1.50000000
C   19.17000000  11.33804859  1.50000000
C   19.17000000  13.79756073  1.50000000
C   19.17000000  16.25707288  1.50000000
C   19.17000000  18.71658503  1.50000000
C   19.17000000  21.17609717  1.50000000
C   19.17000000  23.63560932  1.50000000
C   19.17000000  26.09512147  1.50000000
C   19.17000000  28.55463361  1.50000000
C   19.17000000  31.01414576  1.50000000
C   19.17000000  33.47365791  1.50000000
C   19.17000000  35.93317005  1.50000000
C   19.17000000  38.39268220  1.50000000
C   19.17000000  40.85219435  1.50000000
C   19.17000000  43.31170649  1.50000000
C   19.17000000  45.77121864  1.50000000
C   19.17000000  48.23073079  1.50000000
C   19.17000000  50.69024293  1.50000000
C   19.17000000  53.14975508  1.50000000
C   19.17000000  55.60926723  1.50000000
C   19.17000000  58.06877938  1.50000000
C   19.17000000  60.52829152  1.50000000
C   19.88000000  2.72975607  1.50000000
C   19.88000000  5.18926822  1.50000000
C   19.88000000  7.64878037  1.50000000
C   19.88000000  10.10829251  1.50000000
C   19.88000000  12.56780466  1.50000000
C   19.88000000  15.02731681  1.50000000
C   19.88000000  17.48682895  1.50000000
C   19.88000000  19.94634110  1.50000000
C   19.88000000  22.40585325  1.50000000
C   19.88000000  24.86536539  1.50000000
C   19.88000000  27.32487754  1.50000000
C   19.88000000  29.78438969  1.50000000
C   19.88000000  32.24390183  1.50000000
C   19.88000000  34.70341398  1.50000000
C   19.88000000  37.16292613  1.50000000
C   19.88000000  39.62243827  1.50000000
C   19.88000000  42.08195042  1.50000000
C   19.88000000  44.54146257  1.50000000
C   19.88000000  47.00097471  1.50000000
C   19.88000000  49.46048686  1.50000000
C   19.88000000  51.91999901  1.50000000
C   19.88000000  54.37951116  1.50000000
C   19.88000000  56.83902330  1.50000000
C   19.88000000  59.29853545  1.50000000
C   21.30000000  2.72975607  1.50000000
C   21.30000000  5.18926822  1.50000000
C   21.30000000  7.64878037  1.50000000
C   21.30000000  10.10829251  1.50000000
C   21.30000000  12.56780466  1.50000000
C   21.30000000  15.02731681  1.50000000
C   21.30000000  17.48682895  1.50000000
C   21.30000000  19.94634110  1.50000000
C   21.30000000  22.40585325  1.50000000
C   21.30000000  24.86536539  1.50000000
C   21.30000000  27.32487754  1.50000000
C   21.30000000  29.78438969  1.50000000
C   21.30000000  32.24390183  1.50000000
C   21.30000000  34.70341398  1.50000000
C   21.30000000  37.16292613  1.50000000
C   21.30000000  39.62243827  1.50000000
C   21.30000000  42.08195042  1.50000000
C   21.30000000  44.54146257  1.50000000
C   21.30000000  47.00097471  1.50000000
C   21.30000000  49.46048686  1.50000000
C   21.30000000  51.91999901  1.50000000
C   21.30000000  54.37951116  1.50000000
C   21.30000000  56.83902330  1.50000000
C   21.30000000  59.29853545  1.50000000
C   22.01000000  1.50000000  1.50000000
C   22.01000000  3.95951215  1.50000000
C   22.01000000  6.41902429  1.50000000
C   22.01000000  8.87853644  1.50000000
C   22.01000000  11.33804859  1.50000000
C   22.01000000  13.79756073  1.50000000
C   22.01000000  16.25707288  1.50000000
C   22.01000000  18.71658503  1.50000000
C   22.01000000  21.17609717  1.50000000
C   22.01000000  23.63560932  1.50000000
C   22.01000000  26.09512147  1.50000000
C   22.01000000  28.55463361  1.50000000
C   22.01000000  31.01414576  1.50000000
C   22.01000000  33.47365791  1.50000000
C   22.01000000  35.93317005  1.50000000
C   22.01000000  38.39268220  1.50000000
C   22.01000000  40.85219435  1.50000000
C   22.01000000  43.31170649  1.50000000
C   22.01000000  45.77121864  1.50000000
C   22.01000000  48.23073079  1.50000000
C   22.01000000  50.69024293  1.50000000
C   22.01000000  53.14975508  1.50000000
C   22.01000000  55.60926723  1.50000000
C   22.01000000  58.06877938  1.50000000
C   22.01000000  60.52829152  1.50000000
C   23.43000000  1.50000000  1.50000000
C   23.43000000  3.95951215  1.50000000
C   23.43000000  6.41902429  1.50000000
C   23.43000000  8.87853644  1.50000000
C   23.43000000  11.33804859  1.50000000
C   23.43000000  13.79756073  1.50000000
C   23.43000000  16.25707288  1.50000000
C   23.43000000  18.71658503  1.50000000
C   23.43000000  21.17609717  1.50000000
C   23.43000000  23.63560932  1.50000000
C   23.43000000  26.09512147  1.50000000
C   23.43000000  28.55463361  1.50000000
C   23.43000000  31.01414576  1.50000000
C   23.43000000  33.47365791  1.50000000
C   23.43000000  35.93317005  1.50000000
C   23.43000000  38.39268220  1.50000000
C   23.43000000  40.85219435  1.50000000
C   23.43000000  43.31170649  1.50000000
C   23.43000000  45.77121864  1.50000000
C   23.43000000  48.23073079  1.50000000
C   23.43000000  50.69024293  1.50000000
C   23.43000000  53.14975508  1.50000000
C   23.43000000  55.60926723  1.50000000
C   23.43000000  58.06877938  1.50000000
C   23.43000000  60.52829152  1.50000000
C   24.14000000  2.72975607  1.50000000
C   24.14000000  5.18926822  1.50000000
C   24.14000000  7.64878037  1.50000000
C   24.14000000  10.10829251  1.50000000
C   24.14000000  12.56780466  1.50000000
C   24.14000000  15.02731681  1.50000000
C   24.14000000  17.48682895  1.50000000
C   24.14000000  19.94634110  1.50000000
C   24.14000000  22.40585325  1.50000000
C   24.14000000  24.86536539  1.50000000
C   24.14000000  27.32487754  1.50000000
C   24.14000000  29.78438969  1.50000000
C   24.14000000  32.24390183  1.50000000
C   24.14000000  34.70341398  1.50000000
C   24.14000000  37.16292613  1.50000000
C   24.14000000  39.62243827  1.50000000
C   24.14000000  42.08195042  1.50000000
C   24.14000000  44.54146257  1.50000000
C   24.14000000  47.00097471  1.50000000
C   24.14000000  49.46048686  1.50000000
C   24.14000000  51.91999901  1.50000000
C   24.14000000  54.37951116  1.50000000
C   24.14000000  56.83902330  1.50000000
C   24.14000000  59.29853545  1.50000000
C   25.56000000  2.72975607  1.50000000
C   25.56000000  5.18926822  1.50000000
C   25.56000000  7.64878037  1.50000000
C   25.56000000  10.10829251  1.50000000
C   25.56000000  12.56780466  1.50000000
C   25.56000000  15.02731681  1.50000000
C   25.56000000  17.48682895  1.50000000
C   25.56000000  19.94634110  1.50000000
C   25.56000000  22.40585325  1.50000000
C   25.56000000  24.86536539  1.50000000
C   25.56000000  27.32487754  1.50000000
C   25.56000000  29.78438969  1.50000000
C   25.56000000  32.24390183  1.50000000
C   25.56000000  34.70341398  1.50000000
C   25.56000000  37.16292613  1.50000000
C   25.56000000  39.62243827  1.50000000
C   25.56000000  42.08195042  1.50000000
C   25.56000000  44.54146257  1.50000000
C   25.56000000  47.00097471  1.50000000
C   25.56000000  49.46048686  1.50000000
C   25.56000000  51.91999901  1.50000000
C   25.56000000  54.37951116  1.50000000
C   25.56000000  56.83902330  1.50000000
C   25.56000000  59.29853545  1.50000000
C   26.27000000  1.50000000  1.50000000
C   26.27000000  3.95951215  1.50000000
C   26.27000000  6.41902429  1.50000000
C   26.27000000  8.87853644  1.50000000
C   26.27000000  11.33804859  1.50000000
C   26.27000000  13.79756073  1.50000000
C   26.27000000  16.25707288  1.50000000
C   26.27000000  18.71658503  1.50000000
C   26.27000000  21.17609717  1.50000000
C   26.27000000  23.63560932  1.50000000
C   26.27000000  26.09512147  1.50000000
C   26.27000000  28.55463361  1.50000000
C   26.27000000  31.01414576  1.50000000
C   26.27000000  33.47365791  1.50000000
C   26.27000000  35.93317005  1.50000000
C   26.27000000  38.39268220  1.50000000
C   26.27000000  40.85219435  1.50000000
C   26.27000000  43.31170649  1.50000000
C   26.27000000  45.77121864  1.50000000
C   26.27000000  48.23073079  1.50000000
C   26.27000000  50.69024293  1.50000000
C   26.27000000  53.14975508  1.50000000
C   26.27000000  55.60926723  1.50000000
C   26.27000000  58.06877938  1.50000000
C   26.27000000  60.52829152  1.50000000
C   27.69000000  1.50000000  1.50000000
C   27.69000000  3.95951215  1.50000000
C   27.69000000  6.41902429  1.50000000
C   27.69000000  8.87853644  1.50000000
C   27.69000000  11.33804859  1.50000000
C   27.69000000  13.79756073  1.50000000
C   27.69000000  16.25707288  1.50000000
C   27.69000000  18.71658503  1.50000000
C   27.69000000  21.17609717  1.50000000
C   27.69000000  23.63560932  1.50000000
C   27.69000000  26.09512147  1.50000000
C   27.69000000  28.55463361  1.50000000
C   27.69000000  31.01414576  1.50000000
C   27.69000000  33.47365791  1.50000000
C   27.69000000  35.93317005  1.50000000
C   27.69000000  38.39268220  1.50000000
C   27.69000000  40.85219435  1.50000000
C   27.69000000  43.31170649  1.50000000
C   27.69000000  45.77121864  1.50000000
C   27.69000000  48.23073079  1.50000000
C   27.69000000  50.69024293  1.50000000
C   27.69000000  53.14975508  1.50000000
C   27.69000000  55.60926723  1.50000000
C   27.69000000  58.06877938  1.50000000
C   27.69000000  60.52829152  1.50000000
C   28.40000000  2.72975607  1.50000000
C   28.40000000  5.18926822  1.50000000
C   28.40000000  7.64878037  1.50000000
C   28.40000000  10.10829251  1.50000000
C   28.40000000  12.56780466  1.50000000
C   28.40000000  15.02731681  1.50000000
C   28.40000000  17.48682895  1.50000000
C   28.40000000  19.94634110  1.50000000
C   28.40000000  22.40585325  1.50000000
C   28.40000000  24.86536539  1.50000000
C   28.40000000  27.32487754  1.50000000
C   28.40000000  29.78438969  1.50000000
C   28.40000000  32.24390183  1.50000000
C   28.40000000  34.70341398  1.50000000
C   28.40000000  37.16292613  1.50000000
C   28.40000000  39.62243827  1.50000000
C   28.40000000  42.08195042  1.50000000
C   28.40000000  44.54146257  1.50000000
C   28.40000000  47.00097471  1.50000000
C   28.40000000  49.46048686  1.50000000
C   28.40000000  51.91999901  1.50000000
C   28.40000000  54.37951116  1.50000000
C   28.40000000  56.83902330  1.50000000
C   28.40000000  59.29853545  1.50000000
C   29.82000000  2.72975607  1.50000000
C   29.82000000  5.18926822  1.50000000
C   29.82000000  7.64878037  1.50000000
C   29.82000000  10.10829251  1.50000000
C   29.82000000  12.56780466  1.50000000
C   29.82000000  15.02731681  1.50000000
C   29.82000000  17.48682895  1.50000000
C   29.82000000  19.94634110  1.50000000
C   29.82000000  22.40585325  1.50000000
C   29.82000000  24.86536539  1.50000000
C   29.82000000  27.32487754  1.50000000
C   29.82000000  29.78438969  1.50000000
C   29.82000000  32.24390183  1.50000000
C   29.82000000  34.70341398  1.50000000
C   29.82000000  37.16292613  1.50000000
C   29.82000000  39.62243827  1.50000000
C   29.82000000  42.08195042  1.50000000
C   29.82000000  44.54146257  1.50000000
C   29.82000000  47.00097471  1.50000000
C   29.82000000  49.46048686  1.50000000
C   29.82000000  51.91999901  1.50000000
C   29.82000000  54.37951116  1.50000000
C   29.82000000  56.83902330  1.50000000
C   29.82000000  59.29853545  1.50000000
C   30.53000000  1.50000000  1.50000000
C   30.53000000  3.95951215  1.50000000
C   30.53000000  6.41902429  1.50000000
C   30.53000000  8.87853644  1.50000000
C   30.53000000  11.33804859  1.50000000
C   30.53000000  13.79756073  1.50000000
C   30.53000000  16.25707288  1.50000000
C   30.53000000  18.71658503  1.50000000
C   30.53000000  21.17609717  1.50000000
C   30.53000000  23.63560932  1.50000000
C   30.53000000  26.09512147  1.50000000
C   30.53000000  28.55463361  1.50000000
C   30.53000000  31.01414576  1.50000000
C   30.53000000  33.47365791  1.50000000
C   30.53000000  35.93317005  1.50000000
C   30.53000000  38.39268220  1.50000000
C   30.53000000  40.85219435  1.50000000
C   30.53000000  43.31170649  1.50000000
C   30.53000000  45.77121864  1.50000000
C   30.53000000  48.23073079  1.50000000
C   30.53000000  50.69024293  1.50000000
C   30.53000000  53.14975508  1.50000000
C   30.53000000  55.60926723  1.50000000
C   30.53000000  58.06877938  1.50000000
C   30.53000000  60.52829152  1.50000000
C   31.95000000  1.50000000  1.50000000
C   31.95000000  3.95951215  1.50000000
C   31.95000000  6.41902429  1.50000000
C   31.95000000  8.87853644  1.50000000
C   31.95000000  11.33804859  1.50000000
C   31.95000000  13.79756073  1.50000000
C   31.95000000  16.25707288  1.50000000
C   31.95000000  18.71658503  1.50000000
C   31.95000000  21.17609717  1.50000000
C   31.95000000  23.63560932  1.50000000
C   31.95000000  26.09512147  1.50000000
C   31.95000000  28.55463361  1.50000000
C   31.95000000  31.01414576  1.50000000
C   31.95000000  33.47365791  1.50000000
C   31.95000000  35.93317005  1.50000000
C   31.95000000  38.39268220  1.50000000
C   31.95000000  40.85219435  1.50000000
C   31.95000000  43.31170649  1.50000000
C   31.95000000  45.77121864  1.50000000
C   31.95000000  48.23073079  1.50000000
C   31.95000000  50.69024293  1.50000000
C   31.95000000  53.14975508  1.50000000
C   31.95000000  55.60926723  1.50000000
C   31.95000000  58.06877938  1.50000000
C   31.95000000  60.52829152  1.50000000
C   32.66000000  2.72975607  1.50000000
C   32.66000000  5.18926822  1.50000000
C   32.66000000  7.64878037  1.50000000
C   32.66000000  10.10829251  1.50000000
C   32.66000000  12.56780466  1.50000000
C   32.66000000  15.02731681  1.50000000
C   32.66000000  17.48682895  1.50000000
C   32.66000000  19.94634110  1.50000000
C   32.66000000  22.40585325  1.50000000
C   32.66000000  24.86536539  1.50000000
C   32.66000000  27.32487754  1.50000000
C   32.66000000  29.78438969  1.50000000
C   32.66000000  32.24390183  1.50000000
C   32.66000000  34.70341398  1.50000000
C   32.66000000  37.16292613  1.50000000
C   32.66000000  39.62243827  1.50000000
C   32.66000000  42.08195042  1.50000000
C   32.66000000  44.54146257  1.50000000
C   32.66000000  47.00097471  1.50000000
C   32.66000000  49.46048686  1.50000000
C   32.66000000  51.91999901  1.50000000
C   32.66000000  54.37951116  1.50000000
C   32.66000000  56.83902330  1.50000000
C   32.66000000  59.29853545  1.50000000
C   34.08000000  2.72975607  1.50000000
C   34.08000000  5.18926822  1.50000000
C   34.08000000  7.64878037  1.50000000
C   34.08000000  10.10829251  1.50000000
C   34.08000000  12.56780466  1.50000000
C   34.08000000  15.02731681  1.50000000
C   34.08000000  17.48682895  1.50000000
C   34.08000000  19.94634110  1.50000000
C   34.08000000  22.40585325  1.50000000
C   34.08000000  24.86536539  1.50000000
C   34.08000000  27.32487754  1.50000000
C   34.08000000  29.78438969  1.50000000
C   34.08000000  32.24390183  1.50000000
C   34.08000000  34.70341398  1.50000000
C   34.08000000  37.16292613  1.50000000
C   34.08000000  39.62243827  1.50000000
C   34.08000000  42.08195042  1.50000000
C   34.08000000  44.54146257  1.50000000
C   34.08000000  47.00097471  1.50000000
C   34.08000000  49.46048686  1.50000000
C   34.08000000  51.91999901  1.50000000
C   34.08000000  54.37951116  1.50000000
C   34.08000000  56.83902330  1.50000000
C   34.08000000  59.29853545  1.50000000
C   34.79000000  1.50000000  1.50000000
C   34.79000000  3.95951215  1.50000000
C   34.79000000  6.41902429  1.50000000
C   34.79000000  8.87853644  1.50000000
C   34.79000000  11.33804859  1.50000000
C   34.79000000  13.79756073  1.50000000
C   34.79000000  16.25707288  1.50000000
C   34.79000000  18.71658503  1.50000000
C   34.79000000  21.17609717  1.50000000
C   34.79000000  23.63560932  1.50000000
C   34.79000000  26.09512147  1.50000000
C   34.79000000  28.55463361  1.50000000
C   34.79000000  31.01414576  1.50000000
C   34.79000000  33.47365791  1.50000000
C   34.79000000  35.93317005  1.50000000
C   34.79000000  38.39268220  1.50000000
C   34.79000000  40.85219435  1.50000000
C   34.79000000  43.31170649  1.50000000
C   34.79000000  45.77121864  1.50000000
C   34.79000000  48.23073079  1.50000000
C   34.79000000  50.69024293  1.50000000
C   34.79000000  53.14975508  1.50000000
C   34.79000000  55.60926723  1.50000000
C   34.79000000  58.06877938  1.50000000
C   34.79000000  60.52829152  1.50000000
C   36.21000000  1.50000000  1.50000000
C   36.21000000  3.95951215  1.50000000
C   36.21000000  6.41902429  1.50000000
C   36.21000000  8.87853644  1.50000000
C   36.21000000  11.33804859  1.50000000
C   36.21000000  13.79756073  1.50000000
C   36.21000000  16.25707288  1.50000000
C   36.21000000  18.71658503  1.50000000
C   36.21000000  21.17609717  1.50000000
C   36.21000000  23.63560932  1.50000000
C   36.21000000  26.09512147  1.50000000
C   36.21000000  28.55463361  1.50000000
C   36.21000000  31.01414576  1.50000000
C   36.21000000  33.47365791  1.50000000
C   36.21000000  35.93317005  1.50000000
C   36.21000000  38.39268220  1.50000000
C   36.21000000  40.85219435  1.50000000
C   36.21000000  43.31170649  1.50000000
C   36.21000000  45.77121864  1.50000000
C   36.21000000  48.23073079  1.50000000
C   36.21000000  50.69024293  1.50000000
C   36.21000000  53.14975508  1.50000000
C   36.21000000  55.60926723  1.50000000
C   36.21000000  58.06877938  1.50000000
C   36.21000000  60.52829152  1.50000000
C   36.92000000  2.72975607  1.50000000
C   36.92000000  5.18926822  1.50000000
C   36.92000000  7.64878037  1.50000000
C   36.92000000  10.10829251  1.50000000
C   36.92000000  12.56780466  1.50000000
C   36.92000000  15.02731681  1.50000000
C   36.92000000  17.48682895  1.50000000
C   36.92000000  19.94634110  1.50000000
C   36.92000000  22.40585325  1.50000000
C   36.92000000  24.86536539  1.50000000
C   36.92000000  27.32487754  1.50000000
C   36.92000000  29.78438969  1.50000000
C   36.92000000  32.24390183  1.50000000
C   36.92000000  34.70341398  1.50000000
C   36.92000000  37.16292613  1.50000000
C   36.92000000  39.62243827  1.50000000
C   36.92000000  42.08195042  1.50000000
C   36.92000000  44.54146257  1.50000000
C   36.92000000  47.00097471  1.50000000
C   36.92000000  49.46048686  1.50000000
C   36.92000000  51.91999901  1.50000000
C   36.92000000  54.37951116  1.50000000
C   36.92000000  56.83902330  1.50000000
C   36.92000000  59.29853545  1.50000000
C   38.34000000  2.72975607  1.50000000
C   38.34000000  5.18926822  1.50000000
C   38.34000000  7.64878037  1.50000000
C   38.34000000  10.10829251  1.50000000
C   38.34000000  12.56780466  1.50000000
C   38.34000000  15.02731681  1.50000000
C   38.34000000  17.48682895  1.50000000
C   38.34000000  19.94634110  1.50000000
C   38.34000000  22.40585325  1.50000000
C   38.34000000  24.86536539  1.50000000
C   38.34000000  27.32487754  1.50000000
C   38.34000000  29.78438969  1.50000000
C   38.34000000  32.24390183  1.50000000
C   38.34000000  34.70341398  1.50000000
C   38.34000000  37.16292613  1.50000000
C   38.34000000  39.62243827  1.50000000
C   38.34000000  42.08195042  1.50000000
C   38.34000000  44.54146257  1.50000000
C   38.34000000  47.00097471  1.50000000
C   38.34000000  49.46048686  1.50000000
C   38.34000000  51.91999901  1.50000000
C   38.34000000  54.37951116  1.50000000
C   38.34000000  56.83902330  1.50000000
C   38.34000000  59.29853545  1.50000000
C   39.05000000  1.50000000  1.50000000
C   39.05000000  3.95951215  1.50000000
C   39.05000000  6.41902429  1.50000000
C   39.05000000  8.87853644  1.50000000
C   39.05000000  11.33804859  1.50000000
C   39.05000000  13.79756073  1.50000000
C   39.05000000  16.25707288  1.50000000
C   39.05000000  18.71658503  1.50000000
C   39.05000000  21.17609717  1.50000000
C   39.05000000  23.63560932  1.50000000
C   39.05000000  26.09512147  1.50000000
C   39.05000000  28.55463361  1.50000000
C   39.05000000  31.01414576  1.50000000
C   39.05000000  33.47365791  1.50000000
C   39.05000000  35.93317005  1.50000000
C   39.05000000  38.39268220  1.50000000
C   39.05000000  40.85219435  1.50000000
C   39.05000000  43.31170649  1.50000000
C   39.05000000  45.77121864  1.50000000
C   39.05000000  48.23073079  1.50000000
C   39.05000000  50.69024293  1.50000000
C   39.05000000  53.14975508  1.50000000
C   39.05000000  55.60926723  1.50000000
C   39.05000000  58.06877938  1.50000000
C   39.05000000  60.52829152  1.50000000
C   40.47000000  1.50000000  1.50000000
C   40.47000000  3.95951215  1.50000000
C   40.47000000  6.41902429  1.50000000
C   40.47000000  8.87853644  1.50000000
C   40.47000000  11.33804859  1.50000000
C   40.47000000  13.79756073  1.50000000
C   40.47000000  16.25707288  1.50000000
C   40.47000000  18.71658503  1.50000000
C   40.47000000  21.17609717  1.50000000
C   40.47000000  23.63560932  1.50000000
C   40.47000000  26.09512147  1.50000000
C   40.47000000  28.55463361  1.50000000
C   40.47000000  31.01414576  1.50000000
C   40.47000000  33.47365791  1.50000000
C   40.47000000  35.93317005  1.50000000
C   40.47000000  38.39268220  1.50000000
C   40.47000000  40.85219435  1.50000000
C   40.47000000  43.31170649  1.50000000
C   40.47000000  45.77121864  1.50000000
C   40.47000000  48.23073079  1.50000000
C   40.47000000  50.69024293  1.50000000
C   40.47000000  53.14975508  1.50000000
C   40.47000000  55.60926723  1.50000000
C   40.47000000  58.06877938  1.50000000
C   40.47000000  60.52829152  1.50000000
C   41.18000000  2.72975607  1.50000000
C   41.18000000  5.18926822  1.50000000
C   41.18000000  7.64878037  1.50000000
C   41.18000000  10.10829251  1.50000000
C   41.18000000  12.56780466  1.50000000
C   41.18000000  15.02731681  1.50000000
C   41.18000000  17.48682895  1.50000000
C   41.18000000  19.94634110  1.50000000
C   41.18000000  22.40585325  1.50000000
C   41.18000000  24.86536539  1.50000000
C   41.18000000  27.32487754  1.50000000
C   41.18000000  29.78438969  1.50000000
C   41.18000000  32.24390183  1.50000000
C   41.18000000  34.70341398  1.50000000
C   41.18000000  37.16292613  1.50000000
C   41.18000000  39.62243827  1.50000000
C   41.18000000  42.08195042  1.50000000
C   41.18000000  44.54146257  1.50000000
C   41.18000000  47.00097471  1.50000000
C   41.18000000  49.46048686  1.50000000
C   41.18000000  51.91999901  1.50000000
C   41.18000000  54.37951116  1.50000000
C   41.18000000  56.83902330  1.50000000
C   41.18000000  59.29853545  1.50000000
C   42.60000000  2.72975607  1.50000000
C   42.60000000  5.18926822  1.50000000
C   42.60000000  7.64878037  1.50000000
C   42.60000000  10.10829251  1.50000000
C   42.60000000  12.56780466  1.50000000
C   42.60000000  15.02731681  1.50000000
C   42.60000000  17.48682895  1.50000000
C   42.60000000  19.94634110  1.50000000
C   42.60000000  22.40585325  1.50000000
C   42.60000000  24.86536539  1.50000000
C   42.60000000  27.32487754  1.50000000
C   42.60000000  29.78438969  1.50000000
C   42.60000000  32.24390183  1.50000000
C   42.60000000  34.70341398  1.50000000
C   42.60000000  37.16292613  1.50000000
C   42.60000000  39.62243827  1.50000000
C   42.60000000  42.08195042  1.50000000
C   42.60000000  44.54146257  1.50000000
C   42.60000000  47.00097471  1.50000000
C   42.60000000  49.46048686  1.50000000
C   42.60000000  51.91999901  1.50000000
C   42.60000000  54.37951116  1.50000000
C   42.60000000  56.83902330  1.50000000
C   42.60000000  59.29853545  1.50000000
C   43.31000000  1.50000000  1.50000000
C   43.31000000  3.95951215  1.50000000
C   43.31000000  6.41902429  1.50000000
C   43.31000000  8.87853644  1.50000000
C   43.31000000  11.33804859  1.50000000
C   43.31000000  13.79756073  1.50000000
C   43.31000000  16.25707288  1.50000000
C   43.31000000  18.71658503  1.50000000
C   43.31000000  21.17609717  1.50000000
C   43.31000000  23.63560932  1.50000000
C   43.31000000  26.09512147  1.50000000
C   43.31000000  28.55463361  1.50000000
C   43.31000000  31.01414576  1.50000000
C   43.31000000  33.47365791  1.50000000
C   43.31000000  35.93317005  1.50000000
C   43.31000000  38.39268220  1.50000000
C   43.31000000  40.85219435  1.50000000
C   43.31000000  43.31170649  1.50000000
C   43.31000000  45.77121864  1.50000000
C   43.31000000  48.23073079  1.50000000
C   43.31000000  50.69024293  1.50000000
C   43.31000000  53.14975508  1.50000000
C   43.31000000  55.60926723  1.50000000
C   43.31000000  58.06877938  1.50000000
C   43.31000000  60.52829152  1.50000000
C   44.73000000  1.50000000  1.50000000
C   44.73000000  3.95951215  1.50000000
C   44.73000000  6.41902429  1.50000000
C   44.73000000  8.87853644  1.50000000
C   44.73000000  11.33804859  1.50000000
C   44.73000000  13.79756073  1.50000000
C   44.73000000  16.25707288  1.50000000
C   44.73000000  18.71658503  1.50000000
C   44.73000000  21.17609717  1.50000000
C   44.73000000  23.63560932  1.50000000
C   44.73000000  26.09512147  1.50000000
C   44.73000000  28.55463361  1.50000000
C   44.73000000  31.01414576  1.50000000
C   44.73000000  33.47365791  1.50000000
C   44.73000000  35.93317005  1.50000000
C   44.73000000  38.39268220  1.50000000
C   44.73000000  40.85219435  1.50000000
C   44.73000000  43.31170649  1.50000000
C   44.73000000  45.77121864  1.50000000
C   44.73000000  48.23073079  1.50000000
C   44.73000000  50.69024293  1.50000000
C   44.73000000  53.14975508  1.50000000
C   44.73000000  55.60926723  1.50000000
C   44.73000000  58.06877938  1.50000000
C   44.73000000  60.52829152  1.50000000
C   45.44000000  2.72975607  1.50000000
C   45.44000000  5.18926822  1.50000000
C   45.44000000  7.64878037  1.50000000
C   45.44000000  10.10829251  1.50000000
C   45.44000000  12.56780466  1.50000000
C   45.44000000  15.02731681  1.50000000
C   45.44000000  17.48682895  1.50000000
C   45.44000000  19.94634110  1.50000000
C   45.44000000  22.40585325  1.50000000
C   45.44000000  24.86536539  1.50000000
C   45.44000000  27.32487754  1.50000000
C   45.44000000  29.78438969  1.50000000
C   45.44000000  32.24390183  1.50000000
C   45.44000000  34.70341398  1.50000000
C   45.44000000  37.16292613  1.50000000
C   45.44000000  39.62243827  1.50000000
C   45.44000000  42.08195042  1.50000000
C   45.44000000  44.54146257  1.50000000
C   45.44000000  47.00097471  1.50000000
C   45.44000000  49.46048686  1.50000000
C   45.44000000  51.91999901  1.50000000
C   45.44000000  54.37951116  1.50000000
C   45.44000000  56.83902330  1.50000000
C   45.44000000  59.29853545  1.50000000
C   46.86000000  2.72975607  1.50000000
C   46.86000000  5.18926822  1.50000000
C   46.86000000  7.64878037  1.50000000
C   46.86000000  10.10829251  1.50000000
C   46.86000000  12.56780466  1.50000000
C   46.86000000  15.02731681  1.50000000
C   46.86000000  17.48682895  1.50000000
C   46.86000000  19.94634110  1.50000000
C   46.86000000  22.40585325  1.50000000
C   46.86000000  24.86536539  1.50000000
C   46.86000000  27.32487754  1.50000000
C   46.86000000  29.78438969  1.50000000
C   46.86000000  32.24390183  1.50000000
C   46.86000000  34.70341398  1.50000000
C   46.86000000  37.16292613  1.50000000
C   46.86000000  39.62243827  1.50000000
C   46.86000000  42.08195042  1.50000000
C   46.86000000  44.54146257  1.50000000
C   46.86000000  47.00097471  1.50000000
C   46.86000000  49.46048686  1.50000000
C   46.86000000  51.91999901  1.50000000
C   46.86000000  54.37951116  1.50000000
C   46.86000000  56.83902330  1.50000000
C   46.86000000  59.29853545  1.50000000
C   47.57000000  1.50000000  1.50000000
C   47.57000000  3.95951215  1.50000000
C   47.57000000  6.41902429  1.50000000
C   47.57000000  8.87853644  1.50000000
C   47.57000000  11.33804859  1.50000000
C   47.57000000  13.79756073  1.50000000
C   47.57000000  16.25707288  1.50000000
C   47.57000000  18.71658503  1.50000000
C   47.57000000  21.17609717  1.50000000
C   47.57000000  23.63560932  1.50000000
C   47.57000000  26.09512147  1.50000000
C   47.57000000  28.55463361  1.50000000
C   47.57000000  31.01414576  1.50000000
C   47.57000000  33.47365791  1.50000000
C   47.57000000  35.93317005  1.50000000
C   47.57000000  38.39268220  1.50000000
C   47.57000000  40.85219435  1.50000000
C   47.57000000  43.31170649  1.50000000
C   47.57000000  45.77121864  1.50000000
C   47.57000000  48.23073079  1.50000000
C   47.57000000  50.69024293  1.50000000
C   47.57000000  53.14975508  1.50000000
C   47.57000000  55.60926723  1.50000000
C   47.57000000  58.06877938  1.50000000
C   47.57000000  60.52829152  1.50000000
C   48.99000000  1.50000000  1.50000000
C   48.99000000  3.95951215  1.50000000
C   48.99000000  6.41902429  1.50000000
C   48.99000000  8.87853644  1.50000000
C   48.99000000  11.33804859  1.50000000
C   48.99000000  13.79756073  1.50000000
C   48.99000000  16.25707288  1.50000000
C   48.99000000  18.71658503  1.50000000
C   48.99000000  21.17609717  1.50000000
C   48.99000000  23.63560932  1.50000000
C   48.99000000  26.09512147  1.50000000
C   48.99000000  28.55463361  1.50000000
C   48.99000000  31.01414576  1.50000000
C   48.99000000  33.47365791  1.50000000
C   48.99000000  35.93317005  1.50000000
C   48.99000000  38.39268220  1.50000000
C   48.99000000  40.85219435  1.50000000
C   48.99000000  43.31170649  1.50000000
C   48.99000000  45.77121864  1.50000000
C   48.99000000  48.23073079  1.50000000
C   48.99000000  50.69024293  1.50000000
C   48.99000000  53.14975508  1.50000000
C   48.99000000  55.60926723  1.50000000
C   48.99000000  58.06877938  1.50000000
C   48.99000000  60.52829152  1.50000000
C   49.70000000  2.72975607  1.50000000
C   49.70000000  5.18926822  1.50000000
C   49.70000000  7.64878037  1.50000000
C   49.70000000  10.10829251  1.50000000
C   49.70000000  12.56780466  1.50000000
C   49.70000000  15.02731681  1.50000000
C   49.70000000  17.48682895  1.50000000
C   49.70000000  19.94634110  1.50000000
C   49.70000000  22.40585325  1.50000000
C   49.70000000  24.86536539  1.50000000
C   49.70000000  27.32487754  1.50000000
C   49.70000000  29.78438969  1.50000000
C   49.70000000  32.24390183  1.50000000
C   49.70000000  34.70341398  1.50000000
C   49.70000000  37.16292613  1.50000000
C   49.70000000  39.62243827  1.50000000
C   49.70000000  42.08195042  1.50000000
C   49.70000000  44.54146257  1.50000000
C   49.70000000  47.00097471  1.50000000
C   49.70000000  49.46048686  1.50000000
C   49.70000000  51.91999901  1.50000000
C   49.70000000  54.37951116  1.50000000
C   49.70000000  56.83902330  1.50000000
C   49.70000000  59.29853545  1.50000000
C   51.12000000  2.72975607  1.50000000
C   51.12000000  5.18926822  1.50000000
C   51.12000000  7.64878037  1.50000000
C   51.12000000  10.10829251  1.50000000
C   51.12000000  12.56780466  1.50000000
C   51.12000000  15.02731681  1.50000000
C   51.12000000  17.48682895  1.50000000
C   51.12000000  19.94634110  1.50000000
C   51.12000000  22.40585325  1.50000000
C   51.12000000  24.86536539  1.50000000
C   51.12000000  27.32487754  1.50000000
C   51.12000000  29.78438969  1.50000000
C   51.12000000  32.24390183  1.50000000
C   51.12000000  34.70341398  1.50000000
C   51.12000000  37.16292613  1.50000000
C   51.12000000  39.62243827  1.50000000
C   51.12000000  42.08195042  1.50000000
C   51.12000000  44.54146257  1.50000000
C   51.12000000  47.00097471  1.50000000
C   51.12000000  49.46048686  1.50000000
C   51.12000000  51.91999901  1.50000000
C   51.12000000  54.37951116  1.50000000
C   51.12000000  56.83902330  1.50000000
C   51.12000000  59.29853545  1.50000000
C   51.83000000  1.50000000  1.50000000
C   51.83000000  3.95951215  1.50000000
C   51.83000000  6.41902429  1.50000000
C   51.83000000  8.87853644  1.50000000
C   51.83000000  11.33804859  1.50000000
C   51.83000000  13.79756073  1.50000000
C   51.83000000  16.25707288  1.50000000
C   51.83000000  18.71658503  1.50000000
C   51.83000000  21.17609717  1.50000000
C   51.83000000  23.63560932  1.50000000
C   51.83000000  26.09512147  1.50000000
C   51.83000000  28.55463361  1.50000000
C   51.83000000  31.01414576  1.50000000
C   51.83000000  33.47365791  1.50000000
C   51.83000000  35.93317005  1.50000000
C   51.83000000  38.39268220  1.50000000
C   51.83000000  40.85219435  1.50000000
C   51.83000000  43.31170649  1.50000000
C   51.83000000  45.77121864  1.50000000
C   51.83000000  48.23073079  1.50000000
C   51.83000000  50.69024293  1.50000000
C   51.83000000  53.14975508  1.50000000
C   51.83000000  55.60926723  1.50000000
C   51.83000000  58.06877938  1.50000000
C   51.83000000  60.52829152  1.50000000
C   53.25000000  1.50000000  1.50000000
C   53.25000000  3.95951215  1.50000000
C   53.25000000  6.41902429  1.50000000
C   53.25000000  8.87853644  1.50000000
C   53.25000000  11.33804859  1.50000000
C   53.25000000  13.79756073  1.50000000
C   53.25000000  16.25707288  1.50000000
C   53.25000000  18.71658503  1.50000000
C   53.25000000  21.17609717  1.50000000
C   53.25000000  23.63560932  1.50000000
C   53.25000000  26.09512147  1.50000000
C   53.25000000  28.55463361  1.50000000
C   53.25000000  31.01414576  1.50000000
C   53.25000000  33.47365791  1.50000000
C   53.25000000  35.93317005  1.50000000
C   53.25000000  38.39268220  1.50000000
C   53.25000000  40.85219435  1.50000000
C   53.25000000  43.31170649  1.50000000
C   53.25000000  45.77121864  1.50000000
C   53.25000000  48.23073079  1.50000000
C   53.25000000  50.69024293  1.50000000
C   53.25000000  53.14975508  1.50000000
C   53.25000000  55.60926723  1.50000000
C   53.25000000  58.06877938  1.50000000
C   53.25000000  60.52829152  1.50000000
C   53.96000000  2.72975607  1.50000000
C   53.96000000  5.18926822  1.50000000
C   53.96000000  7.64878037  1.50000000
C   53.96000000  10.10829251  1.50000000
C   53.96000000  12.56780466  1.50000000
C   53.96000000  15.02731681  1.50000000
C   53.96000000  17.48682895  1.50000000
C   53.96000000  19.94634110  1.50000000
C   53.96000000  22.40585325  1.50000000
C   53.96000000  24.86536539  1.50000000
C   53.96000000  27.32487754  1.50000000
C   53.96000000  29.78438969  1.50000000
C   53.96000000  32.24390183  1.50000000
C   53.96000000  34.70341398  1.50000000
C   53.96000000  37.16292613  1.50000000
C   53.96000000  39.62243827  1.50000000
C   53.96000000  42.08195042  1.50000000
C   53.96000000  44.54146257  1.50000000
C   53.96000000  47.00097471  1.50000000
C   53.96000000  49.46048686  1.50000000
C   53.96000000  51.91999901  1.50000000
C   53.96000000  54.37951116  1.50000000
C   53.96000000  56.83902330  1.50000000
C   53.96000000  59.29853545  1.50000000
C   55.38000000  2.72975607  1.50000000
C   55.38000000  5.18926822  1.50000000
C   55.38000000  7.64878037  1.50000000
C   55.38000000  10.10829251  1.50000000
C   55.38000000  12.56780466  1.50000000
C   55.38000000  15.02731681  1.50000000
C   55.38000000  17.48682895  1.50000000
C   55.38000000  19.94634110  1.50000000
C   55.38000000  22.40585325  1.50000000
C   55.38000000  24.86536539  1.50000000
C   55.38000000  27.32487754  1.50000000
C   55.38000000  29.78438969  1.50000000
C   55.38000000  32.24390183  1.50000000
C   55.38000000  34.70341398  1.50000000
C   55.38000000  37.16292613  1.50000000
C   55.38000000  39.62243827  1.50000000
C   55.38000000  42.08195042  1.50000000
C   55.38000000  44.54146257  1.50000000
C   55.38000000  47.00097471  1.50000000
C   55.38000000  49.46048686  1.50000000
C   55.38000000  51.91999901  1.50000000
C   55.38000000  54.37951116  1.50000000
C   55.38000000  56.83902330  1.50000000
C   55.38000000  59.29853545  1.50000000
C   56.09000000  1.50000000  1.50000000
C   56.09000000  3.95951215  1.50000000
C   56.09000000  6.41902429  1.50000000
C   56.09000000  8.87853644  1.50000000
C   56.09000000  11.33804859  1.50000000
C   56.09000000  13.79756073  1.50000000
C   56.09000000  16.25707288  1.50000000
C   56.09000000  18.71658503  1.50000000
C   56.09000000  21.17609717  1.50000000
C   56.09000000  23.63560932  1.50000000
C   56.09000000  26.09512147  1.50000000
C   56.09000000  28.55463361  1.50000000
C   56.09000000  31.01414576  1.50000000
C   56.09000000  33.47365791  1.50000000
C   56.09000000  35.93317005  1.50000000
C   56.09000000  38.39268220  1.50000000
C   56.09000000  40.85219435  1.50000000
C   56.09000000  43.31170649  1.50000000
C   56.09000000  45.77121864  1.50000000
C   56.09000000  48.23073079  1.50000000
C   56.09000000  50.69024293  1.50000000
C   56.09000000  53.14975508  1.50000000
C   56.09000000  55.60926723  1.50000000
C   56.09000000  58.06877938  1.50000000
C   56.09000000  60.52829152  1.50000000
C   57.51000000  1.50000000  1.50000000
C   57.51000000  3.95951215  1.50000000
C   57.51000000  6.41902429  1.50000000
C   57.51000000  8.87853644  1.50000000
C   57.51000000  11.33804859  1.50000000
C   57.51000000  13.79756073  1.50000000
C   57.51000000  16.25707288  1.50000000
C   57.51000000  18.71658503  1.50000000
C   57.51000000  21.17609717  1.50000000
C   57.51000000  23.63560932  1.50000000
C   57.51000000  26.09512147  1.50000000
C   57.51000000  28.55463361  1.50000000
C   57.51000000  31.01414576  1.50000000
C   57.51000000  33.47365791  1.50000000
C   57.51000000  35.93317005  1.50000000
C   57.51000000  38.39268220  1.50000000
C   57.51000000  40.85219435  1.50000000
C   57.51000000  43.31170649  1.50000000
C   57.51000000  45.77121864  1.50000000
C   57.51000000  48.23073079  1.50000000
C   57.51000000  50.69024293  1.50000000
C   57.51000000  53.14975508  1.50000000
C   57.51000000  55.60926723  1.50000000
C   57.51000000  58.06877938  1.50000000
C   57.51000000  60.52829152  1.50000000
C   58.22000000  2.72975607  1.50000000
C   58.22000000  5.18926822  1.50000000
C   58.22000000  7.64878037  1.50000000
C   58.22000000  10.10829251  1.50000000
C   58.22000000  12.56780466  1.50000000
C   58.22000000  15.02731681  1.50000000
C   58.22000000  17.48682895  1.50000000
C   58.22000000  19.94634110  1.50000000
C   58.22000000  22.40585325  1.50000000
C   58.22000000  24.86536539  1.50000000
C   58.22000000  27.32487754  1.50000000
C   58.22000000  29.78438969  1.50000000
C   58.22000000  32.24390183  1.50000000
C   58.22000000  34.70341398  1.50000000
C   58.22000000  37.16292613  1.50000000
C   58.22000000  39.62243827  1.50000000
C   58.22000000  42.08195042  1.50000000
C   58.22000000  44.54146257  1.50000000
C   58.22000000  47.00097471  1.50000000
C   58.22000000  49.46048686  1.50000000
C   58.22000000  51.91999901  1.50000000
C   58.22000000  54.37951116  1.50000000
C   58.22000000  56.83902330  1.50000000
C   58.22000000  59.29853545  1.50000000
C   59.64000000  2.72975607  1.50000000
C   59.64000000  5.18926822  1.50000000
C   59.64000000  7.64878037  1.50000000
C   59.64000000  10.10829251  1.50000000
C   59.64000000  12.56780466  1.50000000
C   59.64000000  15.02731681  1.50000000
C   59.64000000  17.48682895  1.50000000
C   59.64000000  19.94634110  1.50000000
C   59.64000000  22.40585325  1.50000000
C   59.64000000  24.86536539  1.50000000
C   59.64000000  27.32487754  1.50000000
C   59.64000000  29.78438969  1.50000000
C   59.64000000  32.24390183  1.50000000
C   59.64000000  34.70341398  1.50000000
C   59.64000000  37.16292613  1.50000000
C   59.64000000  39.62243827  1.50000000
C   59.64000000  42.08195042  1.50000000
C   59.64000000  44.54146257  1.50000000
C   59.64000000  47.00097471  1.50000000
C   59.64000000  49.46048686  1.50000000
C   59.64000000  51.91999901  1.50000000
C   59.64000000  54.37951116  1.50000000
C   59.64000000  56.83902330  1.50000000
C   59.64000000  59.29853545  1.50000000
C   60.35000000  1.50000000  1.50000000
C   60.35000000  3.95951215  1.50000000
C   60.35000000  6.41902429  1.50000000
C   60.35000000  8.87853644  1.50000000
C   60.35000000  11.33804859  1.50000000
C   60.35000000  13.79756073  1.50000000
C   60.35000000  16.25707288  1.50000000
C   60.35000000  18.71658503  1.50000000
C   60.35000000  21.17609717  1.50000000
C   60.35000000  23.63560932  1.50000000
C   60.35000000  26.09512147  1.50000000
C   60.35000000  28.55463361  1.50000000
C   60.35000000  31.01414576  1.50000000
C   60.35000000  33.47365791  1.50000000
C   60.35000000  35.93317005  1.50000000
C   60.35000000  38.39268220  1.50000000
C   60.35000000  40.85219435  1.50000000
C   60.35000000  43.31170649  1.50000000
C   60.35000000  45.77121864  1.50000000
C   60.35000000  48.23073079  1.50000000
C   60.35000000  50.69024293  1.50000000
C   60.35000000  53.14975508  1.50000000
C   60.35000000  55.60926723  1.50000000
C   60.35000000  58.06877938  1.50000000
C   60.35000000  60.52829152  1.50000000
C   61.77000000  1.50000000  1.50000000
C   61.77000000  3.95951215  1.50000000
C   61.77000000  6.41902429  1.50000000
C   61.77000000  8.87853644  1.50000000
C   61.77000000  11.33804859  1.50000000
C   61.77000000  13.79756073  1.50000000
C   61.77000000  16.25707288  1.50000000
C   61.77000000  18.71658503  1.50000000
C   61.77000000  21.17609717  1.50000000
C   61.77000000  23.63560932  1.50000000
C   61.77000000  26.09512147  1.50000000
C   61.77000000  28.55463361  1.50000000
C   61.77000000  31.01414576  1.50000000
C   61.77000000  33.47365791  1.50000000
C   61.77000000  35.93317005  1.50000000
C   61.77000000  38.39268220  1.50000000
C   61.77000000  40.85219435  1.50000000
C   61.77000000  43.31170649  1.50000000
C   61.77000000  45.77121864  1.50000000
C   61.77000000  48.23073079  1.50000000
C   61.77000000  50.69024293  1.50000000
C   61.77000000  53.14975508  1.50000000
C   61.77000000  55.60926723  1.50000000
C   61.77000000  58.06877938  1.50000000
C   61.77000000  60.52829152  1.50000000
C   62.48000000  2.72975607  1.50000000
C   62.48000000  5.18926822  1.50000000
C   62.48000000  7.64878037  1.50000000
C   62.48000000  10.10829251  1.50000000
C   62.48000000  12.56780466  1.50000000
C   62.48000000  15.02731681  1.50000000
C   62.48000000  17.48682895  1.50000000
C   62.48000000  19.94634110  1.50000000
C   62.48000000  22.40585325  1.50000000
C   62.48000000  24.86536539  1.50000000
C   62.48000000  27.32487754  1.50000000
C   62.48000000  29.78438969  1.50000000
C   62.48000000  32.24390183  1.50000000
C   62.48000000  34.70341398  1.50000000
C   62.48000000  37.16292613  1.50000000
C   62.48000000  39.62243827  1.50000000
C   62.48000000  42.08195042  1.50000000
C   62.48000000  44.54146257  1.50000000
C   62.48000000  47.00097471  1.50000000
C   62.48000000  49.46048686  1.50000000
C   62.48000000  51.91999901  1.50000000
C   62.48000000  54.37951116  1.50000000
C   62.48000000  56.83902330  1.50000000
C   62.48000000  59.29853545  1.50000000
C   63.90000000  2.72975607  1.50000000
C   63.90000000  5.18926822  1.50000000
C   63.90000000  7.64878037  1.50000000
C   63.90000000  10.10829251  1.50000000
C   63.90000000  12.56780466  1.50000000
C   63.90000000  15.02731681  1.50000000
C   63.90000000  17.48682895  1.50000000
C   63.90000000  19.94634110  1.50000000
C   63.90000000  22.40585325  1.50000000
C   63.90000000  24.86536539  1.50000000
C   63.90000000  27.32487754  1.50000000
C   63.90000000  29.78438969  1.50000000
C   63.90000000  32.24390183  1.50000000
C   63.90000000  34.70341398  1.50000000
C   63.90000000  37.16292613  1.50000000
C   63.90000000  39.62243827  1.50000000
C   63.90000000  42.08195042  1.50000000
C   63.90000000  44.54146257  1.50000000
C   63.90000000  47.00097471  1.50000000
C   63.90000000  49.46048686  1.50000000
C   63.90000000  51.91999901  1.50000000
C   63.90000000  54.37951116  1.50000000
C   63.90000000  56.83902330  1.50000000
C   63.90000000  59.29853545  1.50000000
C   64.61000000  1.50000000  1.50000000
C   64.61000000  3.95951215  1.50000000
C   64.61000000  6.41902429  1.50000000
C   64.61000000  8.87853644  1.50000000
C   64.61000000  11.33804859  1.50000000
C   64.61000000  13.79756073  1.50000000
C   64.61000000  16.25707288  1.50000000
C   64.61000000  18.71658503  1.50000000
C   64.61000000  21.17609717  1.50000000
C   64.61000000  23.63560932  1.50000000
C   64.61000000  26.09512147  1.50000000
C   64.61000000  28.55463361  1.50000000
C   64.61000000  31.01414576  1.50000000
C   64.61000000  33.47365791  1.50000000
C   64.61000000  35.93317005  1.50000000
C   64.61000000  38.39268220  1.50000000
C   64.61000000  40.85219435  1.50000000
C   64.61000000  43.31170649  1.50000000
C   64.61000000  45.77121864  1.50000000
C   64.61000000  48.23073079  1.50000000
C   64.61000000  50.69024293  1.50000000
C   64.61000000  53.14975508  1.50000000
C   64.61000000  55.60926723  1.50000000
C   64.61000000  58.06877938  1.50000000
C   64.61000000  60.52829152  1.50000000
C   66.03000000  1.50000000  1.50000000
C   66.03000000  3.95951215  1.50000000
C   66.03000000  6.41902429  1.50000000
C   66.03000000  8.87853644  1.50000000
C   66.03000000  11.33804859  1.50000000
C   66.03000000  13.79756073  1.50000000
C   66.03000000  16.25707288  1.50000000
C   66.03000000  18.71658503  1.50000000
C   66.03000000  21.17609717  1.50000000
C   66.03000000  23.63560932  1.50000000
C   66.03000000  26.09512147  1.50000000
C   66.03000000  28.55463361  1.50000000
C   66.03000000  31.01414576  1.50000000
C   66.03000000  33.47365791  1.50000000
C   66.03000000  35.93317005  1.50000000
C   66.03000000  38.39268220  1.50000000
C   66.03000000  40.85219435  1.50000000
C   66.03000000  43.31170649  1.50000000
C   66.03000000  45.77121864  1.50000000
C   66.03000000  48.23073079  1.50000000
C   66.03000000  50.69024293  1.50000000
C   66.03000000  53.14975508  1.50000000
C   66.03000000  55.60926723  1.50000000
C   66.03000000  58.06877938  1.50000000
C   66.03000000  60.52829152  1.50000000
C   66.74000000  2.72975607  1.50000000
C   66.74000000  5.18926822  1.50000000
C   66.74000000  7.64878037  1.50000000
C   66.74000000  10.10829251  1.50000000
C   66.74000000  12.56780466  1.50000000
C   66.74000000  15.02731681  1.50000000
C   66.74000000  17.48682895  1.50000000
C   66.74000000  19.94634110  1.50000000
C   66.74000000  22.40585325  1.50000000
C   66.74000000  24.86536539  1.50000000
C   66.74000000  27.32487754  1.50000000
C   66.74000000  29.78438969  1.50000000
C   66.74000000  32.24390183  1.50000000
C   66.74000000  34.70341398  1.50000000
C   66.74000000  37.16292613  1.50000000
C   66.74000000  39.62243827  1.50000000
C   66.74000000  42.08195042  1.50000000
C   66.74000000  44.54146257  1.50000000
C   66.74000000  47.00097471  1.50000000
C   66.74000000  49.46048686  1.50000000
C   66.74000000  51.91999901  1.50000000
C   66.74000000  54.37951116  1.50000000
C   66.74000000  56.83902330  1.50000000
C   66.74000000  59.29853545  1.50000000
C   68.16000000  2.72975607  1.50000000
C   68.16000000  5.18926822  1.50000000
C   68.16000000  7.64878037  1.50000000
C   68.16000000  10.10829251  1.50000000
C   68.16000000  12.56780466  1.50000000
C   68.16000000  15.02731681  1.50000000
C   68.16000000  17.48682895  1.50000000
C   68.16000000  19.94634110  1.50000000
C   68.16000000  22.40585325  1.50000000
C   68.16000000  24.86536539  1.50000000
C   68.16000000  27.32487754  1.50000000
C   68.16000000  29.78438969  1.50000000
C   68.16000000  32.24390183  1.50000000
C   68.16000000  34.70341398  1.50000000
C   68.16000000  37.16292613  1.50000000
C   68.16000000  39.62243827  1.50000000
C   68.16000000  42.08195042  1.50000000
C   68.16000000  44.54146257  1.50000000
C   68.16000000  47.00097471  1.50000000
C   68.16000000  49.46048686  1.50000000
C   68.16000000  51.91999901  1.50000000
C   68.16000000  54.37951116  1.50000000
C   68.16000000  56.83902330  1.50000000
C   68.16000000  59.29853545  1.50000000
C   68.87000000  1.50000000  1.50000000
C   68.87000000  3.95951215  1.50000000
C   68.87000000  6.41902429  1.50000000
C   68.87000000  8.87853644  1.50000000
C   68.87000000  11.33804859  1.50000000
C   68.87000000  13.79756073  1.50000000
C   68.87000000  16.25707288  1.50000000
C   68.87000000  18.71658503  1.50000000
C   68.87000000  21.17609717  1.50000000
C   68.87000000  23.63560932  1.50000000
C   68.87000000  26.09512147  1.50000000
C   68.87000000  28.55463361  1.50000000
C   68.87000000  31.01414576  1.50000000
C   68.87000000  33.47365791  1.50000000
C   68.87000000  35.93317005  1.50000000
C   68.87000000  38.39268220  1.50000000
C   68.87000000  40.85219435  1.50000000
C   68.87000000  43.31170649  1.50000000
C   68.87000000  45.77121864  1.50000000
C   68.87000000  48.23073079  1.50000000
C   68.87000000  50.69024293  1.50000000
C   68.87000000  53.14975508  1.50000000
C   68.87000000  55.60926723  1.50000000
C   68.87000000  58.06877938  1.50000000
C   68.87000000  60.52829152  1.50000000
C   70.29000000  1.50000000  1.50000000
C   70.29000000  3.95951215  1.50000000
C   70.29000000  6.41902429  1.50000000
C   70.29000000  8.87853644  1.50000000
C   70.29000000  11.33804859  1.50000000
C   70.29000000  13.79756073  1.50000000
C   70.29000000  16.25707288  1.50000000
C   70.29000000  18.71658503  1.50000000
C   70.29000000  21.17609717  1.50000000
C   70.29000000  23.63560932  1.50000000
C   70.29000000  26.09512147  1.50000000
C   70.29000000  28.55463361  1.50000000
C   70.29000000  31.01414576  1.50000000
C   70.29000000  33.47365791  1.50000000
C   70.29000000  35.93317005  1.50000000
C   70.29000000  38.39268220  1.50000000
C   70.29000000  40.85219435  1.50000000
C   70.29000000  43.31170649  1.50000000
C   70.29000000  45.77121864  1.50000000
C   70.29000000  48.23073079  1.50000000
C   70.29000000  50.69024293  1.50000000
C   70.29000000  53.14975508  1.50000000
C   70.29000000  55.60926723  1.50000000
C   70.29000000  58.06877938  1.50000000
C   70.29000000  60.52829152  1.50000000
C   71.00000000  2.72975607  1.50000000
C   71.00000000  5.18926822  1.50000000
C   71.00000000  7.64878037  1.50000000
C   71.00000000  10.10829251  1.50000000
C   71.00000000  12.56780466  1.50000000
C   71.00000000  15.02731681  1.50000000
C   71.00000000  17.48682895  1.50000000
C   71.00000000  19.94634110  1.50000000
C   71.00000000  22.40585325  1.50000000
C   71.00000000  24.86536539  1.50000000
C   71.00000000  27.32487754  1.50000000
C   71.00000000  29.78438969  1.50000000
C   71.00000000  32.24390183  1.50000000
C   71.00000000  34.70341398  1.50000000
C   71.00000000  37.16292613  1.50000000
C   71.00000000  39.62243827  1.50000000
C   71.00000000  42.08195042  1.50000000
C   71.00000000  44.54146257  1.50000000
C   71.00000000  47.00097471  1.50000000
C   71.00000000  49.46048686  1.50000000
C   71.00000000  51.91999901  1.50000000
C   71.00000000  54.37951116  1.50000000
C   71.00000000  56.83902330  1.50000000
C   71.00000000  59.29853545  1.50000000
C   72.42000000  2.72975607  1.50000000
C   72.42000000  5.18926822  1.50000000
C   72.42000000  7.64878037  1.50000000
C   72.42000000  10.10829251  1.50000000
C   72.42000000  12.56780466  1.50000000
C   72.42000000  15.02731681  1.50000000
C   72.42000000  17.48682895  1.50000000
C   72.42000000  19.94634110  1.50000000
C   72.42000000  22.40585325  1.50000000
C   72.42000000  24.86536539  1.50000000
C   72.42000000  27.32487754  1.50000000
C   72.42000000  29.78438969  1.50000000
C   72.42000000  32.24390183  1.50000000
C   72.42000000  34.70341398  1.50000000
C   72.42000000  37.16292613  1.50000000
C   72.42000000  39.62243827  1.50000000
C   72.42000000  42.08195042  1.50000000
C   72.42000000  44.54146257  1.50000000
C   72.42000000  47.00097471  1.50000000
C   72.42000000  49.46048686  1.50000000
C   72.42000000  51.91999901  1.50000000
C   72.42000000  54.37951116  1.50000000
C   72.42000000  56.83902330  1.50000000
C   72.42000000  59.29853545  1.50000000
C   73.13000000  1.50000000  1.50000000
C   73.13000000  3.95951215  1.50000000
C   73.13000000  6.41902429  1.50000000
C   73.13000000  8.87853644  1.50000000
C   73.13000000  11.33804859  1.50000000
C   73.13000000  13.79756073  1.50000000
C   73.13000000  16.25707288  1.50000000
C   73.13000000  18.71658503  1.50000000
C   73.13000000  21.17609717  1.50000000
C   73.13000000  23.63560932  1.50000000
C   73.13000000  26.09512147  1.50000000
C   73.13000000  28.55463361  1.50000000
C   73.13000000  31.01414576  1.50000000
C   73.13000000  33.47365791  1.50000000
C   73.13000000  35.93317005  1.50000000
C   73.13000000  38.39268220  1.50000000
C   73.13000000  40.85219435  1.50000000
C   73.13000000  43.31170649  1.50000000
C   73.13000000  45.77121864  1.50000000
C   73.13000000  48.23073079  1.50000000
C   73.13000000  50.69024293  1.50000000
C   73.13000000  53.14975508  1.50000000
C   73.13000000  55.60926723  1.50000000
C   73.13000000  58.06877938  1.50000000
C   73.13000000  60.52829152  1.50000000
C   74.55000000  1.50000000  1.50000000
C   74.55000000  3.95951215  1.50000000
C   74.55000000  6.41902429  1.50000000
C   74.55000000  8.87853644  1.50000000
C   74.55000000  11.33804859  1.50000000
C   74.55000000  13.79756073  1.50000000
C   74.55000000  16.25707288  1.50000000
C   74.55000000  18.71658503  1.50000000
C   74.55000000  21.17609717  1.50000000
C   74.55000000  23.63560932  1.50000000
C   74.55000000  26.09512147  1.50000000
C   74.55000000  28.55463361  1.50000000
C   74.55000000  31.01414576  1.50000000
C   74.55000000  33.47365791  1.50000000
C   74.55000000  35.93317005  1.50000000
C   74.55000000  38.39268220  1.50000000
C   74.55000000  40.85219435  1.50000000
C   74.55000000  43.31170649  1.50000000
C   74.55000000  45.77121864  1.50000000
C   74.55000000  48.23073079  1.50000000
C   74.55000000  50.69024293  1.50000000
C   74.55000000  53.14975508  1.50000000
C   74.55000000  55.60926723  1.50000000
C   74.55000000  58.06877938  1.50000000
C   74.55000000  60.52829152  1.50000000
C   75.26000000  2.72975607  1.50000000
C   75.26000000  5.18926822  1.50000000
C   75.26000000  7.64878037  1.50000000
C   75.26000000  10.10829251  1.50000000
C   75.26000000  12.56780466  1.50000000
C   75.26000000  15.02731681  1.50000000
C   75.26000000  17.48682895  1.50000000
C   75.26000000  19.94634110  1.50000000
C   75.26000000  22.40585325  1.50000000
C   75.26000000  24.86536539  1.50000000
C   75.26000000  27.32487754  1.50000000
C   75.26000000  29.78438969  1.50000000
C   75.26000000  32.24390183  1.50000000
C   75.26000000  34.70341398  1.50000000
C   75.26000000  37.16292613  1.50000000
C   75.26000000  39.62243827  1.50000000
C   75.26000000  42.08195042  1.50000000
C   75.26000000  44.54146257  1.50000000
C   75.26000000  47.00097471  1.50000000
C   75.26000000  49.46048686  1.50000000
C   75.26000000  51.91999901  1.50000000
C   75.26000000  54.37951116  1.50000000
C   75.26000000  56.83902330  1.50000000
C   75.26000000  59.29853545  1.50000000
C   76.68000000  2.72975607  1.50000000
C   76.68000000  5.18926822  1.50000000
C   76.68000000  7.64878037  1.50000000
C   76.68000000  10.10829251  1.50000000
C   76.68000000  12.56780466  1.50000000
C   76.68000000  15.02731681  1.50000000
C   76.68000000  17.48682895  1.50000000
C   76.68000000  19.94634110  1.50000000
C   76.68000000  22.40585325  1.50000000
C   76.68000000  24.86536539  1.50000000
C   76.68000000  27.32487754  1.50000000
C   76.68000000  29.78438969  1.50000000
C   76.68000000  32.24390183  1.50000000
C   76.68000000  34.70341398  1.50000000
C   76.68000000  37.16292613  1.50000000
C   76.68000000  39.62243827  1.50000000
C   76.68000000  42.08195042  1.50000000
C   76.68000000  44.54146257  1.50000000
C   76.68000000  47.00097471  1.50000000
C   76.68000000  49.46048686  1.50000000
C   76.68000000  51.91999901  1.50000000
C   76.68000000  54.37951116  1.50000000
C   76.68000000  56.83902330  1.50000000
C   76.68000000  59.29853545  1.50000000
C   77.39000000  1.50000000  1.50000000
C   77.39000000  3.95951215  1.50000000
C   77.39000000  6.41902429  1.50000000
C   77.39000000  8.87853644  1.50000000
C   77.39000000  11.33804859  1.50000000
C   77.39000000  13.79756073  1.50000000
C   77.39000000  16.25707288  1.50000000
C   77.39000000  18.71658503  1.50000000
C   77.39000000  21.17609717  1.50000000
C   77.39000000  23.63560932  1.50000000
C   77.39000000  26.09512147  1.50000000
C   77.39000000  28.55463361  1.50000000
C   77.39000000  31.01414576  1.50000000
C   77.39000000  33.47365791  1.50000000
C   77.39000000  35.93317005  1.50000000
C   77.39000000  38.39268220  1.50000000
C   77.39000000  40.85219435  1.50000000
C   77.39000000  43.31170649  1.50000000
C   77.39000000  45.77121864  1.50000000
C   77.39000000  48.23073079  1.50000000
C   77.39000000  50.69024293  1.50000000
C   77.39000000  53.14975508  1.50000000
C   77.39000000  55.60926723  1.50000000
C   77.39000000  58.06877938  1.50000000
C   77.39000000  60.52829152  1.50000000
C   78.81000000  1.50000000  1.50000000
C   78.81000000  3.95951215  1.50000000
C   78.81000000  6.41902429  1.50000000
C   78.81000000  8.87853644  1.50000000
C   78.81000000  11.33804859  1.50000000
C   78.81000000  13.79756073  1.50000000
C   78.81000000  16.25707288  1.50000000
C   78.81000000  18.71658503  1.50000000
C   78.81000000  21.17609717  1.50000000
C   78.81000000  23.63560932  1.50000000
C   78.81000000  26.09512147  1.50000000
C   78.81000000  28.55463361  1.50000000
C   78.81000000  31.01414576  1.50000000
C   78.81000000  33.47365791  1.50000000
C   78.81000000  35.93317005  1.50000000
C   78.81000000  38.39268220  1.50000000
C   78.81000000  40.85219435  1.50000000
C   78.81000000  43.31170649  1.50000000
C   78.81000000  45.77121864  1.50000000
C   78.81000000  48.23073079  1.50000000
C   78.81000000  50.69024293  1.50000000
C   78.81000000  53.14975508  1.50000000
C   78.81000000  55.60926723  1.50000000
C   78.81000000  58.06877938  1.50000000
C   78.81000000  60.52829152  1.50000000
C   79.52000000  2.72975607  1.50000000
C   79.52000000  5.18926822  1.50000000
C   79.52000000  7.64878037  1.50000000
C   79.52000000  10.10829251  1.50000000
C   79.52000000  12.56780466  1.50000000
C   79.52000000  15.02731681  1.50000000
C   79.52000000  17.48682895  1.50000000
C   79.52000000  19.94634110  1.50000000
C   79.52000000  22.40585325  1.50000000
C   79.52000000  24.86536539  1.50000000
C   79.52000000  27.32487754  1.50000000
C   79.52000000  29.78438969  1.50000000
C   79.52000000  32.24390183  1.50000000
C   79.52000000  34.70341398  1.50000000
C   79.52000000  37.16292613  1.50000000
C   79.52000000  39.62243827  1.50000000
C   79.52000000  42.08195042  1.50000000
C   79.52000000  44.54146257  1.50000000
C   79.52000000  47.00097471  1.50000000
C   79.52000000  49.46048686  1.50000000
C   79.52000000  51.91999901  1.50000000
C   79.52000000  54.37951116  1.50000000
C   79.52000000  56.83902330  1.50000000
C   79.52000000  59.29853545  1.50000000
C   80.94000000  2.72975607  1.50000000
C   80.94000000  5.18926822  1.50000000
C   80.94000000  7.64878037  1.50000000
C   80.94000000  10.10829251  1.50000000
C   80.94000000  12.56780466  1.50000000
C   80.94000000  15.02731681  1.50000000
C   80.94000000  17.48682895  1.50000000
C   80.94000000  19.94634110  1.50000000
C   80.94000000  22.40585325  1.50000000
C   80.94000000  24.86536539  1.50000000
C   80.94000000  27.32487754  1.50000000
C   80.94000000  29.78438969  1.50000000
C   80.94000000  32.24390183  1.50000000
C   80.94000000  34.70341398  1.50000000
C   80.94000000  37.16292613  1.50000000
C   80.94000000  39.62243827  1.50000000
C   80.94000000  42.08195042  1.50000000
C   80.94000000  44.54146257  1.50000000
C   80.94000000  47.00097471  1.50000000
C   80.94000000  49.46048686  1.50000000
C   80.94000000  51.91999901  1.50000000
C   80.94000000  54.37951116  1.50000000
C   80.94000000  56.83902330  1.50000000
C   80.94000000  59.29853545  1.50000000
C   81.65000000  1.50000000  1.50000000
C   81.65000000  3.95951215  1.50000000
C   81.65000000  6.41902429  1.50000000
C   81.65000000  8.87853644  1.50000000
C   81.65000000  11.33804859  1.50000000
C   81.65000000  13.79756073  1.50000000
C   81.65000000  16.25707288  1.50000000
C   81.65000000  18.71658503  1.50000000
C   81.65000000  21.17609717  1.50000000
C   81.65000000  23.63560932  1.50000000
C   81.65000000  26.09512147  1.50000000
C   81.65000000  28.55463361  1.50000000
C   81.65000000  31.01414576  1.50000000
C   81.65000000  33.47365791  1.50000000
C   81.65000000  35.93317005  1.50000000
C   81.65000000  38.39268220  1.50000000
C   81.65000000  40.85219435  1.50000000
C   81.65000000  43.31170649  1.50000000
C   81.65000000  45.77121864  1.50000000
C   81.65000000  48.23073079  1.50000000
C   81.65000000  50.69024293  1.50000000
C   81.65000000  53.14975508  1.50000000
C   81.65000000  55.60926723  1.50000000
C   81.65000000  58.06877938  1.50000000
C   81.65000000  60.52829152  1.50000000
C   83.07000000  1.50000000  1.50000000
C   83.07000000  3.95951215  1.50000000
C   83.07000000  6.41902429  1.50000000
C   83.07000000  8.87853644  1.50000000
C   83.07000000  11.33804859  1.50000000
C   83.07000000  13.79756073  1.50000000
C   83.07000000  16.25707288  1.50000000
C   83.07000000  18.71658503  1.50000000
C   83.07000000  21.17609717  1.50000000
C   83.07000000  23.63560932  1.50000000
C   83.07000000  26.09512147  1.50000000
C   83.07000000  28.55463361  1.50000000
C   83.07000000  31.01414576  1.50000000
C   83.07000000  33.47365791  1.50000000
C   83.07000000  35.93317005  1.50000000
C   83.07000000  38.39268220  1.50000000
C   83.07000000  40.85219435  1.50000000
C   83.07000000  43.31170649  1.50000000
C   83.07000000  45.77121864  1.50000000
C   83.07000000  48.23073079  1.50000000
C   83.07000000  50.69024293  1.50000000
C   83.07000000  53.14975508  1.50000000
C   83.07000000  55.60926723  1.50000000
C   83.07000000  58.06877938  1.50000000
C   83.07000000  60.52829152  1.50000000
C   83.78000000  2.72975607  1.50000000
C   83.78000000  5.18926822  1.50000000
C   83.78000000  7.64878037  1.50000000
C   83.78000000  10.10829251  1.50000000
C   83.78000000  12.56780466  1.50000000
C   83.78000000  15.02731681  1.50000000
C   83.78000000  17.48682895  1.50000000
C   83.78000000  19.94634110  1.50000000
C   83.78000000  22.40585325  1.50000000
C   83.78000000  24.86536539  1.50000000
C   83.78000000  27.32487754  1.50000000
C   83.78000000  29.78438969  1.50000000
C   83.78000000  32.24390183  1.50000000
C   83.78000000  34.70341398  1.50000000
C   83.78000000  37.16292613  1.50000000
C   83.78000000  39.62243827  1.50000000
C   83.78000000  42.08195042  1.50000000
C   83.78000000  44.54146257  1.50000000
C   83.78000000  47.00097471  1.50000000
C   83.78000000  49.46048686  1.50000000
C   83.78000000  51.91999901  1.50000000
C   83.78000000  54.37951116  1.50000000
C   83.78000000  56.83902330  1.50000000
C   83.78000000  59.29853545  1.50000000
C   85.20000000  2.72975607  1.50000000
C   85.20000000  5.18926822  1.50000000
C   85.20000000  7.64878037  1.50000000
C   85.20000000  10.10829251  1.50000000
C   85.20000000  12.56780466  1.50000000
C   85.20000000  15.02731681  1.50000000
C   85.20000000  17.48682895  1.50000000
C   85.20000000  19.94634110  1.50000000
C   85.20000000  22.40585325  1.50000000
C   85.20000000  24.86536539  1.50000000
C   85.20000000  27.32487754  1.50000000
C   85.20000000  29.78438969  1.50000000
C   85.20000000  32.24390183  1.50000000
C   85.20000000  34.70341398  1.50000000
C   85.20000000  37.16292613  1.50000000
C   85.20000000  39.62243827  1.50000000
C   85.20000000  42.08195042  1.50000000
C   85.20000000  44.54146257  1.50000000
C   85.20000000  47.00097471  1.50000000
C   85.20000000  49.46048686  1.50000000
C   85.20000000  51.91999901  1.50000000
C   85.20000000  54.37951116  1.50000000
C   85.20000000  56.83902330  1.50000000
C   85.20000000  59.29853545  1.50000000
C   85.91000000  1.50000000  1.50000000
C   85.91000000  3.95951215  1.50000000
C   85.91000000  6.41902429  1.50000000
C   85.91000000  8.87853644  1.50000000
C   85.91000000  11.33804859  1.50000000
C   85.91000000  13.79756073  1.50000000
C   85.91000000  16.25707288  1.50000000
C   85.91000000  18.71658503  1.50000000
C   85.91000000  21.17609717  1.50000000
C   85.91000000  23.63560932  1.50000000
C   85.91000000  26.09512147  1.50000000
C   85.91000000  28.55463361  1.50000000
C   85.91000000  31.01414576  1.50000000
C   85.91000000  33.47365791  1.50000000
C   85.91000000  35.93317005  1.50000000
C   85.91000000  38.39268220  1.50000000
C   85.91000000  40.85219435  1.50000000
C   85.91000000  43.31170649  1.50000000
C   85.91000000  45.77121864  1.50000000
C   85.91000000  48.23073079  1.50000000
C   85.91000000  50.69024293  1.50000000
C   85.91000000  53.14975508  1.50000000
C   85.91000000  55.60926723  1.50000000
C   85.91000000  58.06877938  1.50000000
C   85.91000000  60.52829152  1.50000000
C   87.33000000  1.50000000  1.50000000
C   87.33000000  3.95951215  1.50000000
C   87.33000000  6.41902429  1.50000000
C   87.33000000  8.87853644  1.50000000
C   87.33000000  11.33804859  1.50000000
C   87.33000000  13.79756073  1.50000000
C   87.33000000  16.25707288  1.50000000
C   87.33000000  18.71658503  1.50000000
C   87.33000000  21.17609717  1.50000000
C   87.33000000  23.63560932  1.50000000
C   87.33000000  26.09512147  1.50000000
C   87.33000000  28.55463361  1.50000000
C   87.33000000  31.01414576  1.50000000
C   87.33000000  33.47365791  1.50000000
C   87.33000000  35.93317005  1.50000000
C   87.33000000  38.39268220  1.50000000
C   87.33000000  40.85219435  1.50000000
C   87.33000000  43.31170649  1.50000000
C   87.33000000  45.77121864  1.50000000
C   87.33000000  48.23073079  1.50000000
C   87.33000000  50.69024293  1.50000000
C   87.33000000  53.14975508  1.50000000
C   87.33000000  55.60926723  1.50000000
C   87.33000000  58.06877938  1.50000000
C   87.33000000  60.52829152  1.50000000
C   88.04000000  2.72975607  1.50000000
C   88.04000000  5.18926822  1.50000000
C   88.04000000  7.64878037  1.50000000
C   88.04000000  10.10829251  1.50000000
C   88.04000000  12.56780466  1.50000000
C   88.04000000  15.02731681  1.50000000
C   88.04000000  17.48682895  1.50000000
C   88.04000000  19.94634110  1.50000000
C   88.04000000  22.40585325  1.50000000
C   88.04000000  24.86536539  1.50000000
C   88.04000000  27.32487754  1.50000000
C   88.04000000  29.78438969  1.50000000
C   88.04000000  32.24390183  1.50000000
C   88.04000000  34.70341398  1.50000000
C   88.04000000  37.16292613  1.50000000
C   88.04000000  39.62243827  1.50000000
C   88.04000000  42.08195042  1.50000000
C   88.04000000  44.54146257  1.50000000
C   88.04000000  47.00097471  1.50000000
C   88.04000000  49.46048686  1.50000000
C   88.04000000  51.91999901  1.50000000
C   88.04000000  54.37951116  1.50000000
C   88.04000000  56.83902330  1.50000000
C   88.04000000  59.29853545  1.50000000
C   89.46000000  2.72975607  1.50000000
C   89.46000000  5.18926822  1.50000000
C   89.46000000  7.64878037  1.50000000
C   89.46000000  10.10829251  1.50000000
C   89.46000000  12.56780466  1.50000000
C   89.46000000  15.02731681  1.50000000
C   89.46000000  17.48682895  1.50000000
C   89.46000000  19.94634110  1.50000000
C   89.46000000  22.40585325  1.50000000
C   89.46000000  24.86536539  1.50000000
C   89.46000000  27.32487754  1.50000000
C   89.46000000  29.78438969  1.50000000
C   89.46000000  32.24390183  1.50000000
C   89.46000000  34.70341398  1.50000000
C   89.46000000  37.16292613  1.50000000
C   89.46000000  39.62243827  1.50000000
C   89.46000000  42.08195042  1.50000000
C   89.46000000  44.54146257  1.50000000
C   89.46000000  47.00097471  1.50000000
C   89.46000000  49.46048686  1.50000000
C   89.46000000  51.91999901  1.50000000
C   89.46000000  54.37951116  1.50000000
C   89.46000000  56.83902330  1.50000000
C   89.46000000  59.29853545  1.50000000
C   90.17000000  1.50000000  1.50000000
C   90.17000000  3.95951215  1.50000000
C   90.17000000  6.41902429  1.50000000
C   90.17000000  8.87853644  1.50000000
C   90.17000000  11.33804859  1.50000000
C   90.17000000  13.79756073  1.50000000
C   90.17000000  16.25707288  1.50000000
C   90.17000000  18.71658503  1.50000000
C   90.17000000  21.17609717  1.50000000
C   90.17000000  23.63560932  1.50000000
C   90.17000000  26.09512147  1.50000000
C   90.17000000  28.55463361  1.50000000
C   90.17000000  31.01414576  1.50000000
C   90.17000000  33.47365791  1.50000000
C   90.17000000  35.93317005  1.50000000
C   90.17000000  38.39268220  1.50000000
C   90.17000000  40.85219435  1.50000000
C   90.17000000  43.31170649  1.50000000
C   90.17000000  45.77121864  1.50000000
C   90.17000000  48.23073079  1.50000000
C   90.17000000  50.69024293  1.50000000
C   90.17000000  53.14975508  1.50000000
C   90.17000000  55.60926723  1.50000000
C   90.17000000  58.06877938  1.50000000
C   90.17000000  60.52829152  1.50000000
C   91.59000000  1.50000000  1.50000000
C   91.59000000  3.95951215  1.50000000
C   91.59000000  6.41902429  1.50000000
C   91.59000000  8.87853644  1.50000000
C   91.59000000  11.33804859  1.50000000
C   91.59000000  13.79756073  1.50000000
C   91.59000000  16.25707288  1.50000000
C   91.59000000  18.71658503  1.50000000
C   91.59000000  21.17609717  1.50000000
C   91.59000000  23.63560932  1.50000000
C   91.59000000  26.09512147  1.50000000
C   91.59000000  28.55463361  1.50000000
C   91.59000000  31.01414576  1.50000000
C   91.59000000  33.47365791  1.50000000
C   91.59000000  35.93317005  1.50000000
C   91.59000000  38.39268220  1.50000000
C   91.59000000  40.85219435  1.50000000
C   91.59000000  43.31170649  1.50000000
C   91.59000000  45.77121864  1.50000000
C   91.59000000  48.23073079  1.50000000
C   91.59000000  50.69024293  1.50000000
C   91.59000000  53.14975508  1.50000000
C   91.59000000  55.60926723  1.50000000
C   91.59000000  58.06877938  1.50000000
C   91.59000000  60.52829152  1.50000000
C   92.30000000  2.72975607  1.50000000
C   92.30000000  5.18926822  1.50000000
C   92.30000000  7.64878037  1.50000000
C   92.30000000  10.10829251  1.50000000
C   92.30000000  12.56780466  1.50000000
C   92.30000000  15.02731681  1.50000000
C   92.30000000  17.48682895  1.50000000
C   92.30000000  19.94634110  1.50000000
C   92.30000000  22.40585325  1.50000000
C   92.30000000  24.86536539  1.50000000
C   92.30000000  27.32487754  1.50000000
C   92.30000000  29.78438969  1.50000000
C   92.30000000  32.24390183  1.50000000
C   92.30000000  34.70341398  1.50000000
C   92.30000000  37.16292613  1.50000000
C   92.30000000  39.62243827  1.50000000
C   92.30000000  42.08195042  1.50000000
C   92.30000000  44.54146257  1.50000000
C   92.30000000  47.00097471  1.50000000
C   92.30000000  49.46048686  1.50000000
C   92.30000000  51.91999901  1.50000000
C   92.30000000  54.37951116  1.50000000
C   92.30000000  56.83902330  1.50000000
C   92.30000000  59.29853545  1.50000000
C   93.72000000  2.72975607  1.50000000
C   93.72000000  5.18926822  1.50000000
C   93.72000000  7.64878037  1.50000000
C   93.72000000  10.10829251  1.50000000
C   93.72000000  12.56780466  1.50000000
C   93.72000000  15.02731681  1.50000000
C   93.72000000  17.48682895  1.50000000
C   93.72000000  19.94634110  1.50000000
C   93.72000000  22.40585325  1.50000000
C   93.72000000  24.86536539  1.50000000
C   93.72000000  27.32487754  1.50000000
C   93.72000000  29.78438969  1.50000000
C   93.72000000  32.24390183  1.50000000
C   93.72000000  34.70341398  1.50000000
C   93.72000000  37.16292613  1.50000000
C   93.72000000  39.62243827  1.50000000
C   93.72000000  42.08195042  1.50000000
C   93.72000000  44.54146257  1.50000000
C   93.72000000  47.00097471  1.50000000
C   93.72000000  49.46048686  1.50000000
C   93.72000000  51.91999901  1.50000000
C   93.72000000  54.37951116  1.50000000
C   93.72000000  56.83902330  1.50000000
C   93.72000000  59.29853545  1.50000000
C   94.43000000  1.50000000  1.50000000
C   94.43000000  3.95951215  1.50000000
C   94.43000000  6.41902429  1.50000000
C   94.43000000  8.87853644  1.50000000
C   94.43000000  11.33804859  1.50000000
C   94.43000000  13.79756073  1.50000000
C   94.43000000  16.25707288  1.50000000
C   94.43000000  18.71658503  1.50000000
C   94.43000000  21.17609717  1.50000000
C   94.43000000  23.63560932  1.50000000
C   94.43000000  26.09512147  1.50000000
C   94.43000000  28.55463361  1.50000000
C   94.43000000  31.01414576  1.50000000
C   94.43000000  33.47365791  1.50000000
C   94.43000000  35.93317005  1.50000000
C   94.43000000  38.39268220  1.50000000
C   94.43000000  40.85219435  1.50000000
C   94.43000000  43.31170649  1.50000000
C   94.43000000  45.77121864  1.50000000
C   94.43000000  48.23073079  1.50000000
C   94.43000000  50.69024293  1.50000000
C   94.43000000  53.14975508  1.50000000
C   94.43000000  55.60926723  1.50000000
C   94.43000000  58.06877938  1.50000000
C   94.43000000  60.52829152  1.50000000
C   95.85000000  1.50000000  1.50000000
C   95.85000000  3.95951215  1.50000000
C   95.85000000  6.41902429  1.50000000
C   95.85000000  8.87853644  1.50000000
C   95.85000000  11.33804859  1.50000000
C   95.85000000  13.79756073  1.50000000
C   95.85000000  16.25707288  1.50000000
C   95.85000000  18.71658503  1.50000000
C   95.85000000  21.17609717  1.50000000
C   95.85000000  23.63560932  1.50000000
C   95.85000000  26.09512147  1.50000000
C   95.85000000  28.55463361  1.50000000
C   95.85000000  31.01414576  1.50000000
C   95.85000000  33.47365791  1.50000000
C   95.85000000  35.93317005  1.50000000
C   95.85000000  38.39268220  1.50000000
C   95.85000000  40.85219435  1.50000000
C   95.85000000  43.31170649  1.50000000
C   95.85000000  45.77121864  1.50000000
C   95.85000000  48.23073079  1.50000000
C   95.85000000  50.69024293  1.50000000
C   95.85000000  53.14975508  1.50000000
C   95.85000000  55.60926723  1.50000000
C   95.85000000  58.06877938  1.50000000
C   95.85000000  60.52829152  1.50000000
C   96.56000000  2.72975607  1.50000000
C   96.56000000  5.18926822  1.50000000
C   96.56000000  7.64878037  1.50000000
C   96.56000000  10.10829251  1.50000000
C   96.56000000  12.56780466  1.50000000
C   96.56000000  15.02731681  1.50000000
C   96.56000000  17.48682895  1.50000000
C   96.56000000  19.94634110  1.50000000
C   96.56000000  22.40585325  1.50000000
C   96.56000000  24.86536539  1.50000000
C   96.56000000  27.32487754  1.50000000
C   96.56000000  29.78438969  1.50000000
C   96.56000000  32.24390183  1.50000000
C   96.56000000  34.70341398  1.50000000
C   96.56000000  37.16292613  1.50000000
C   96.56000000  39.62243827  1.50000000
C   96.56000000  42.08195042  1.50000000
C   96.56000000  44.54146257  1.50000000
C   96.56000000  47.00097471  1.50000000
C   96.56000000  49.46048686  1.50000000
C   96.56000000  51.91999901  1.50000000
C   96.56000000  54.37951116  1.50000000
C   96.56000000  56.83902330  1.50000000
C   96.56000000  59.29853545  1.50000000
C   97.98000000  2.72975607  1.50000000
C   97.98000000  5.18926822  1.50000000
C   97.98000000  7.64878037  1.50000000
C   97.98000000  10.10829251  1.50000000
C   97.98000000  12.56780466  1.50000000
C   97.98000000  15.02731681  1.50000000
C   97.98000000  17.48682895  1.50000000
C   97.98000000  19.94634110  1.50000000
C   97.98000000  22.40585325  1.50000000
C   97.98000000  24.86536539  1.50000000
C   97.98000000  27.32487754  1.50000000
C   97.98000000  29.78438969  1.50000000
C   97.98000000  32.24390183  1.50000000
C   97.98000000  34.70341398  1.50000000
C   97.98000000  37.16292613  1.50000000
C   97.98000000  39.62243827  1.50000000
C   97.98000000  42.08195042  1.50000000
C   97.98000000  44.54146257  1.50000000
C   97.98000000  47.00097471  1.50000000
C   97.98000000  49.46048686  1.50000000
C   97.98000000  51.91999901  1.50000000
C   97.98000000  54.37951116  1.50000000
C   97.98000000  56.83902330  1.50000000
C   97.98000000  59.29853545  1.50000000
C   98.69000000  1.50000000  1.50000000
C   98.69000000  3.95951215  1.50000000
C   98.69000000  6.41902429  1.50000000
C   98.69000000  8.87853644  1.50000000
C   98.69000000  11.33804859  1.50000000
C   98.69000000  13.79756073  1.50000000
C   98.69000000  16.25707288  1.50000000
C   98.69000000  18.71658503  1.50000000
C   98.69000000  21.17609717  1.50000000
C   98.69000000  23.63560932  1.50000000
C   98.69000000  26.09512147  1.50000000
C   98.69000000  28.55463361  1.50000000
C   98.69000000  31.01414576  1.50000000
C   98.69000000  33.47365791  1.50000000
C   98.69000000  35.93317005  1.50000000
C   98.69000000  38.39268220  1.50000000
C   98.69000000  40.85219435  1.50000000
C   98.69000000  43.31170649  1.50000000
C   98.69000000  45.77121864  1.50000000
C   98.69000000  48.23073079  1.50000000
C   98.69000000  50.69024293  1.50000000
C   98.69000000  53.14975508  1.50000000
C   98.69000000  55.60926723  1.50000000
C   98.69000000  58.06877938  1.50000000
C   98.69000000  60.52829152  1.50000000
C   100.11000000  1.50000000  1.50000000
C   100.11000000  3.95951215  1.50000000
C   100.11000000  6.41902429  1.50000000
C   100.11000000  8.87853644  1.50000000
C   100.11000000  11.33804859  1.50000000
C   100.11000000  13.79756073  1.50000000
C   100.11000000  16.25707288  1.50000000
C   100.11000000  18.71658503  1.50000000
C   100.11000000  21.17609717  1.50000000
C   100.11000000  23.63560932  1.50000000
C   100.11000000  26.09512147  1.50000000
C   100.11000000  28.55463361  1.50000000
C   100.11000000  31.01414576  1.50000000
C   100.11000000  33.47365791  1.50000000
C   100.11000000  35.93317005  1.50000000
C   100.11000000  38.39268220  1.50000000
C   100.11000000  40.85219435  1.50000000
C   100.11000000  43.31170649  1.50000000
C   100.11000000  45.77121864  1.50000000
C   100.11000000  48.23073079  1.50000000
C   100.11000000  50.69024293  1.50000000
C   100.11000000  53.14975508  1.50000000
C   100.11000000  55.60926723  1.50000000
C   100.11000000  58.06877938  1.50000000
C   100.11000000  60.52829152  1.50000000
C   100.82000000  2.72975607  1.50000000
C   100.82000000  5.18926822  1.50000000
C   100.82000000  7.64878037  1.50000000
C   100.82000000  10.10829251  1.50000000
C   100.82000000  12.56780466  1.50000000
C   100.82000000  15.02731681  1.50000000
C   100.82000000  17.48682895  1.50000000
C   100.82000000  19.94634110  1.50000000
C   100.82000000  22.40585325  1.50000000
C   100.82000000  24.86536539  1.50000000
C   100.82000000  27.32487754  1.50000000
C   100.82000000  29.78438969  1.50000000
C   100.82000000  32.24390183  1.50000000
C   100.82000000  34.70341398  1.50000000
C   100.82000000  37.16292613  1.50000000
C   100.82000000  39.62243827  1.50000000
C   100.82000000  42.08195042  1.50000000
C   100.82000000  44.54146257  1.50000000
C   100.82000000  47.00097471  1.50000000
C   100.82000000  49.46048686  1.50000000
C   100.82000000  51.91999901  1.50000000
C   100.82000000  54.37951116  1.50000000
C   100.82000000  56.83902330  1.50000000
C   100.82000000  59.29853545  1.50000000
C   102.24000000  2.72975607  1.50000000
C   102.24000000  5.18926822  1.50000000
C   102.24000000  7.64878037  1.50000000
C   102.24000000  10.10829251  1.50000000
C   102.24000000  12.56780466  1.50000000
C   102.24000000  15.02731681  1.50000000
C   102.24000000  17.48682895  1.50000000
C   102.24000000  19.94634110  1.50000000
C   102.24000000  22.40585325  1.50000000
C   102.24000000  24.86536539  1.50000000
C   102.24000000  27.32487754  1.50000000
C   102.24000000  29.78438969  1.50000000
C   102.24000000  32.24390183  1.50000000
C   102.24000000  34.70341398  1.50000000
C   102.24000000  37.16292613  1.50000000
C   102.24000000  39.62243827  1.50000000
C   102.24000000  42.08195042  1.50000000
C   102.24000000  44.54146257  1.50000000
C   102.24000000  47.00097471  1.50000000
C   102.24000000  49.46048686  1.50000000
C   102.24000000  51.91999901  1.50000000
C   102.24000000  54.37951116  1.50000000
C   102.24000000  56.83902330  1.50000000
C   102.24000000  59.29853545  1.50000000
C   102.95000000  1.50000000  1.50000000
C   102.95000000  3.95951215  1.50000000
C   102.95000000  6.41902429  1.50000000
C   102.95000000  8.87853644  1.50000000
C   102.95000000  11.33804859  1.50000000
C   102.95000000  13.79756073  1.50000000
C   102.95000000  16.25707288  1.50000000
C   102.95000000  18.71658503  1.50000000
C   102.95000000  21.17609717  1.50000000
C   102.95000000  23.63560932  1.50000000
C   102.95000000  26.09512147  1.50000000
C   102.95000000  28.55463361  1.50000000
C   102.95000000  31.01414576  1.50000000
C   102.95000000  33.47365791  1.50000000
C   102.95000000  35.93317005  1.50000000
C   102.95000000  38.39268220  1.50000000
C   102.95000000  40.85219435  1.50000000
C   102.95000000  43.31170649  1.50000000
C   102.95000000  45.77121864  1.50000000
C   102.95000000  48.23073079  1.50000000
C   102.95000000  50.69024293  1.50000000
C   102.95000000  53.14975508  1.50000000
C   102.95000000  55.60926723  1.50000000
C   102.95000000  58.06877938  1.50000000
C   102.95000000  60.52829152  1.50000000
C   104.37000000  1.50000000  1.50000000
C   104.37000000  3.95951215  1.50000000
C   104.37000000  6.41902429  1.50000000
C   104.37000000  8.87853644  1.50000000
C   104.37000000  11.33804859  1.50000000
C   104.37000000  13.79756073  1.50000000
C   104.37000000  16.25707288  1.50000000
C   104.37000000  18.71658503  1.50000000
C   104.37000000  21.17609717  1.50000000
C   104.37000000  23.63560932  1.50000000
C   104.37000000  26.09512147  1.50000000
C   104.37000000  28.55463361  1.50000000
C   104.37000000  31.01414576  1.50000000
C   104.37000000  33.47365791  1.50000000
C   104.37000000  35.93317005  1.50000000
C   104.37000000  38.39268220  1.50000000
C   104.37000000  40.85219435  1.50000000
C   104.37000000  43.31170649  1.50000000
C   104.37000000  45.77121864  1.50000000
C   104.37000000  48.23073079  1.50000000
C   104.37000000  50.69024293  1.50000000
C   104.37000000  53.14975508  1.50000000
C   104.37000000  55.60926723  1.50000000
C   104.37000000  58.06877938  1.50000000
C   104.37000000  60.52829152  1.50000000
C   105.08000000  2.72975607  1.50000000
C   105.08000000  5.18926822  1.50000000
C   105.08000000  7.64878037  1.50000000
C   105.08000000  10.10829251  1.50000000
C   105.08000000  12.56780466  1.50000000
C   105.08000000  15.02731681  1.50000000
C   105.08000000  17.48682895  1.50000000
C   105.08000000  19.94634110  1.50000000
C   105.08000000  22.40585325  1.50000000
C   105.08000000  24.86536539  1.50000000
C   105.08000000  27.32487754  1.50000000
C   105.08000000  29.78438969  1.50000000
C   105.08000000  32.24390183  1.50000000
C   105.08000000  34.70341398  1.50000000
C   105.08000000  37.16292613  1.50000000
C   105.08000000  39.62243827  1.50000000
C   105.08000000  42.08195042  1.50000000
C   105.08000000  44.54146257  1.50000000
C   105.08000000  47.00097471  1.50000000
C   105.08000000  49.46048686  1.50000000
C   105.08000000  51.91999901  1.50000000
C   105.08000000  54.37951116  1.50000000
C   105.08000000  56.83902330  1.50000000
C   105.08000000  59.29853545  1.50000000
C   106.50000000  2.72975607  1.50000000
C   106.50000000  5.18926822  1.50000000
C   106.50000000  7.64878037  1.50000000
C   106.50000000  10.10829251  1.50000000
C   106.50000000  12.56780466  1.50000000
C   106.50000000  15.02731681  1.50000000
C   106.50000000  17.48682895  1.50000000
C   106.50000000  19.94634110  1.50000000
C   106.50000000  22.40585325  1.50000000
C   106.50000000  24.86536539  1.50000000
C   106.50000000  27.32487754  1.50000000
C   106.50000000  29.78438969  1.50000000
C   106.50000000  32.24390183  1.50000000
C   106.50000000  34.70341398  1.50000000
C   106.50000000  37.16292613  1.50000000
C   106.50000000  39.62243827  1.50000000
C   106.50000000  42.08195042  1.50000000
C   106.50000000  44.54146257  1.50000000
C   106.50000000  47.00097471  1.50000000
C   106.50000000  49.46048686  1.50000000
C   106.50000000  51.91999901  1.50000000
C   106.50000000  54.37951116  1.50000000
C   106.50000000  56.83902330  1.50000000
C   106.50000000  59.29853545  1.50000000
C   107.21000000  1.50000000  1.50000000
C   107.21000000  3.95951215  1.50000000
C   107.21000000  6.41902429  1.50000000
C   107.21000000  8.87853644  1.50000000
C   107.21000000  11.33804859  1.50000000
C   107.21000000  13.79756073  1.50000000
C   107.21000000  16.25707288  1.50000000
C   107.21000000  18.71658503  1.50000000
C   107.21000000  21.17609717  1.50000000
C   107.21000000  23.63560932  1.50000000
C   107.21000000  26.09512147  1.50000000
C   107.21000000  28.55463361  1.50000000
C   107.21000000  31.01414576  1.50000000
C   107.21000000  33.47365791  1.50000000
C   107.21000000  35.93317005  1.50000000
C   107.21000000  38.39268220  1.50000000
C   107.21000000  40.85219435  1.50000000
C   107.21000000  43.31170649  1.50000000
C   107.21000000  45.77121864  1.50000000
C   107.21000000  48.23073079  1.50000000
C   107.21000000  50.69024293  1.50000000
C   107.21000000  53.14975508  1.50000000
C   107.21000000  55.60926723  1.50000000
C   107.21000000  58.06877938  1.50000000
C   107.21000000  60.52829152  1.50000000
C   108.63000000  1.50000000  1.50000000
C   108.63000000  3.95951215  1.50000000
C   108.63000000  6.41902429  1.50000000
C   108.63000000  8.87853644  1.50000000
C   108.63000000  11.33804859  1.50000000
C   108.63000000  13.79756073  1.50000000
C   108.63000000  16.25707288  1.50000000
C   108.63000000  18.71658503  1.50000000
C   108.63000000  21.17609717  1.50000000
C   108.63000000  23.63560932  1.50000000
C   108.63000000  26.09512147  1.50000000
C   108.63000000  28.55463361  1.50000000
C   108.63000000  31.01414576  1.50000000
C   108.63000000  33.47365791  1.50000000
C   108.63000000  35.93317005  1.50000000
C   108.63000000  38.39268220  1.50000000
C   108.63000000  40.85219435  1.50000000
C   108.63000000  43.31170649  1.50000000
C   108.63000000  45.77121864  1.50000000
C   108.63000000  48.23073079  1.50000000
C   108.63000000  50.69024293  1.50000000
C   108.63000000  53.14975508  1.50000000
C   108.63000000  55.60926723  1.50000000
C   108.63000000  58.06877938  1.50000000
C   108.63000000  60.52829152  1.50000000
C   109.34000000  2.72975607  1.50000000
C   109.34000000  5.18926822  1.50000000
C   109.34000000  7.64878037  1.50000000
C   109.34000000  10.10829251  1.50000000
C   109.34000000  12.56780466  1.50000000
C   109.34000000  15.02731681  1.50000000
C   109.34000000  17.48682895  1.50000000
C   109.34000000  19.94634110  1.50000000
C   109.34000000  22.40585325  1.50000000
C   109.34000000  24.86536539  1.50000000
C   109.34000000  27.32487754  1.50000000
C   109.34000000  29.78438969  1.50000000
C   109.34000000  32.24390183  1.50000000
C   109.34000000  34.70341398  1.50000000
C   109.34000000  37.16292613  1.50000000
C   109.34000000  39.62243827  1.50000000
C   109.34000000  42.08195042  1.50000000
C   109.34000000  44.54146257  1.50000000
C   109.34000000  47.00097471  1.50000000
C   109.34000000  49.46048686  1.50000000
C   109.34000000  51.91999901  1.50000000
C   109.34000000  54.37951116  1.50000000
C   109.34000000  56.83902330  1.50000000
C   109.34000000  59.29853545  1.50000000
