   312
Lattice="34.08000000 0.00000000 0.00000000 0.00000000 12.83804859 0.00000000 0.00000000 0.00000000 3.00000000 " nsc="1 1 1" pbc="T F F" boundary_condition="PERIODIC PERIODIC  UNKNOWN UNKNOWN  UNKNOWN UNKNOWN"
C   0.00000000  2.72975607  1.50000000
C   0.00000000  5.18926822  1.50000000
C   0.00000000  7.64878037  1.50000000
C   0.00000000  10.10829251  1.50000000
C   0.71000000  1.50000000  1.50000000
C   0.71000000  3.95951215  1.50000000
C   0.71000000  6.41902429  1.50000000
C   0.71000000  8.87853644  1.50000000
C   0.71000000  11.33804859  1.50000000
C   2.13000000  1.50000000  1.50000000
C   2.13000000  3.95951215  1.50000000
C   2.13000000  6.41902429  1.50000000
C   2.13000000  8.87853644  1.50000000
C   2.13000000  11.33804859  1.50000000
C   2.84000000  2.72975607  1.50000000
C   2.84000000  5.18926822  1.50000000
C   2.84000000  7.64878037  1.50000000
C   2.84000000  10.10829251  1.50000000
C   4.26000000  2.72975607  1.50000000
C   4.26000000  5.18926822  1.50000000
C   4.26000000  7.64878037  1.50000000
C   4.26000000  10.10829251  1.50000000
C   4.97000000  1.50000000  1.50000000
C   4.97000000  3.95951215  1.50000000
C   4.97000000  6.41902429  1.50000000
C   4.97000000  8.87853644  1.50000000
C   4.97000000  11.33804859  1.50000000
C   6.39000000  1.50000000  1.50000000
C   6.39000000  3.95951215  1.50000000
C   6.39000000  6.41902429  1.50000000
C   6.39000000  8.87853644  1.50000000
C   6.39000000  11.33804859  1.50000000
C   7.10000000  2.72975607  1.50000000
C   7.10000000  5.18926822  1.50000000
C   7.10000000  7.64878037  1.50000000
C   7.10000000  10.10829251  1.50000000
C   8.52000000  2.72975607  1.50000000
C   8.52000000  5.18926822  1.50000000
C   8.52000000  7.64878037  1.50000000
C   8.52000000  10.10829251  1.50000000
C   9.23000000  1.50000000  1.50000000
C   9.23000000  3.95951215  1.50000000
C   9.23000000  6.41902429  1.50000000
C   9.23000000  8.87853644  1.50000000
C   9.23000000  11.33804859  1.50000000
C   10.65000000  1.50000000  1.50000000
C   10.65000000  3.95951215  1.50000000
C   10.65000000  6.41902429  1.50000000
C   10.65000000  8.87853644  1.50000000
C   10.65000000  11.33804859  1.50000000
C   11.36000000  2.72975607  1.50000000
C   11.36000000  5.18926822  1.50000000
C   11.36000000  7.64878037  1.50000000
C   11.36000000  10.10829251  1.50000000
C   12.78000000  2.72975607  1.50000000
C   12.78000000  5.18926822  1.50000000
C   12.78000000  7.64878037  1.50000000
C   12.78000000  10.10829251  1.50000000
C   13.49000000  1.50000000  1.50000000
C   13.49000000  3.95951215  1.50000000
C   13.49000000  6.41902429  1.50000000
C   13.49000000  8.87853644  1.50000000
C   13.49000000  11.33804859  1.50000000
C   14.91000000  1.50000000  1.50000000
C   14.91000000  3.95951215  1.50000000
C   14.91000000  6.41902429  1.50000000
C   14.91000000  8.87853644  1.50000000
C   14.91000000  11.33804859  1.50000000
C   15.62000000  2.72975607  1.50000000
C   15.62000000  5.18926822  1.50000000
C   15.62000000  7.64878037  1.50000000
C   15.62000000  10.10829251  1.50000000
C   17.04000000  2.72975607  1.50000000
C   17.04000000  5.18926822  1.50000000
C   17.04000000  7.64878037  1.50000000
C   17.04000000  10.10829251  1.50000000
C   17.75000000  1.50000000  1.50000000
C   17.75000000  3.95951215  1.50000000
C   17.75000000  6.41902429  1.50000000
C   17.75000000  8.87853644  1.50000000
C   17.75000000  11.33804859  1.50000000
C   19.17000000  1.50000000  1.50000000
C   19.17000000  3.95951215  1.50000000
C   19.17000000  6.41902429  1.50000000
C   19.17000000  8.87853644  1.50000000
C   19.17000000  11.33804859  1.50000000
C   19.88000000  2.72975607  1.50000000
C   19.88000000  5.18926822  1.50000000
C   19.88000000  7.64878037  1.50000000
C   19.88000000  10.10829251  1.50000000
C   21.30000000  2.72975607  1.50000000
C   21.30000000  5.18926822  1.50000000
C   21.30000000  7.64878037  1.50000000
C   21.30000000  10.10829251  1.50000000
C   22.01000000  1.50000000  1.50000000
C   22.01000000  3.95951215  1.50000000
C   22.01000000  6.41902429  1.50000000
C   22.01000000  8.87853644  1.50000000
C   22.01000000  11.33804859  1.50000000
C   23.43000000  1.50000000  1.50000000
C   23.43000000  3.95951215  1.50000000
C   23.43000000  6.41902429  1.50000000
C   23.43000000  8.87853644  1.50000000
C   23.43000000  11.33804859  1.50000000
C   24.14000000  2.72975607  1.50000000
C   24.14000000  5.18926822  1.50000000
C   24.14000000  7.64878037  1.50000000
C   24.14000000  10.10829251  1.50000000
C   25.56000000  2.72975607  1.50000000
C   25.56000000  5.18926822  1.50000000
C   25.56000000  7.64878037  1.50000000
C   25.56000000  10.10829251  1.50000000
C   26.27000000  1.50000000  1.50000000
C   26.27000000  3.95951215  1.50000000
C   26.27000000  6.41902429  1.50000000
C   26.27000000  8.87853644  1.50000000
C   26.27000000  11.33804859  1.50000000
C   27.69000000  1.50000000  1.50000000
C   27.69000000  3.95951215  1.50000000
C   27.69000000  6.41902429  1.50000000
C   27.69000000  8.87853644  1.50000000
C   27.69000000  11.33804859  1.50000000
C   28.40000000  2.72975607  1.50000000
C   28.40000000  5.18926822  1.50000000
C   28.40000000  7.64878037  1.50000000
C   28.40000000  10.10829251  1.50000000
C   29.82000000  2.72975607  1.50000000
C   29.82000000  5.18926822  1.50000000
C   29.82000000  7.64878037  1.50000000
C   29.82000000  10.10829251  1.50000000
C   30.53000000  1.50000000  1.50000000
C   30.53000000  3.95951215  1.50000000
C   30.53000000  6.41902429  1.50000000
C   30.53000000  8.87853644  1.50000000
C   30.53000000  11.33804859  1.50000000
C   31.95000000  1.50000000  1.50000000
C   31.95000000  3.95951215  1.50000000
C   31.95000000  6.41902429  1.50000000
C   31.95000000  8.87853644  1.50000000
C   31.95000000  11.33804859  1.50000000
C   32.66000000  2.72975607  1.50000000
C   32.66000000  5.18926822  1.50000000
C   32.66000000  7.64878037  1.50000000
C   32.66000000  10.10829251  1.50000000
C   11.36000000  -9.56780466  1.50000000
C   9.23000000  -8.33804859  1.50000000
C   7.10000000  -7.10829251  1.50000000
C   4.97000000  -5.87853644  1.50000000
C   12.78000000  -9.56780466  1.50000000
C   10.65000000  -8.33804859  1.50000000
C   8.52000000  -7.10829251  1.50000000
C   6.39000000  -5.87853644  1.50000000
C   4.26000000  -4.64878037  1.50000000
C   13.49000000  -8.33804859  1.50000000
C   11.36000000  -7.10829251  1.50000000
C   9.23000000  -5.87853644  1.50000000
C   7.10000000  -4.64878037  1.50000000
C   4.97000000  -3.41902429  1.50000000
C   12.78000000  -7.10829251  1.50000000
C   10.65000000  -5.87853644  1.50000000
C   8.52000000  -4.64878037  1.50000000
C   6.39000000  -3.41902429  1.50000000
C   13.49000000  -5.87853644  1.50000000
C   11.36000000  -4.64878037  1.50000000
C   9.23000000  -3.41902429  1.50000000
C   7.10000000  -2.18926822  1.50000000
C   14.91000000  -5.87853644  1.50000000
C   12.78000000  -4.64878037  1.50000000
C   10.65000000  -3.41902429  1.50000000
C   8.52000000  -2.18926822  1.50000000
C   6.39000000  -0.95951215  1.50000000
C   15.62000000  -4.64878037  1.50000000
C   13.49000000  -3.41902429  1.50000000
C   11.36000000  -2.18926822  1.50000000
C   9.23000000  -0.95951215  1.50000000
C   7.10000000  0.27024393  1.50000000
C   14.91000000  -3.41902429  1.50000000
C   12.78000000  -2.18926822  1.50000000
C   10.65000000  -0.95951215  1.50000000
C   8.52000000  0.27024393  1.50000000
C   15.62000000  -2.18926822  1.50000000
C   13.49000000  -0.95951215  1.50000000
C   11.36000000  0.27024393  1.50000000
C   17.04000000  -2.18926822  1.50000000
C   14.91000000  -0.95951215  1.50000000
C   12.78000000  0.27024393  1.50000000
C   17.75000000  -0.95951215  1.50000000
C   15.62000000  0.27024393  1.50000000
C   17.04000000  0.27024393  1.50000000
C   15.62000000  12.56780466  1.50000000
C   17.04000000  12.56780466  1.50000000
C   14.91000000  13.79756073  1.50000000
C   19.88000000  12.56780466  1.50000000
C   17.75000000  13.79756073  1.50000000
C   15.62000000  15.02731681  1.50000000
C   21.30000000  12.56780466  1.50000000
C   19.17000000  13.79756073  1.50000000
C   17.04000000  15.02731681  1.50000000
C   24.14000000  12.56780466  1.50000000
C   22.01000000  13.79756073  1.50000000
C   19.88000000  15.02731681  1.50000000
C   17.75000000  16.25707288  1.50000000
C   25.56000000  12.56780466  1.50000000
C   23.43000000  13.79756073  1.50000000
C   21.30000000  15.02731681  1.50000000
C   19.17000000  16.25707288  1.50000000
C   17.04000000  17.48682895  1.50000000
C   26.27000000  13.79756073  1.50000000
C   24.14000000  15.02731681  1.50000000
C   22.01000000  16.25707288  1.50000000
C   19.88000000  17.48682895  1.50000000
C   17.75000000  18.71658503  1.50000000
C   25.56000000  15.02731681  1.50000000
C   23.43000000  16.25707288  1.50000000
C   21.30000000  17.48682895  1.50000000
C   19.17000000  18.71658503  1.50000000
C   26.27000000  16.25707288  1.50000000
C   24.14000000  17.48682895  1.50000000
C   22.01000000  18.71658503  1.50000000
C   19.88000000  19.94634110  1.50000000
C   27.69000000  16.25707288  1.50000000
C   25.56000000  17.48682895  1.50000000
C   23.43000000  18.71658503  1.50000000
C   21.30000000  19.94634110  1.50000000
C   19.17000000  21.17609717  1.50000000
C   28.40000000  17.48682895  1.50000000
C   26.27000000  18.71658503  1.50000000
C   24.14000000  19.94634110  1.50000000
C   22.01000000  21.17609717  1.50000000
C   19.88000000  22.40585325  1.50000000
C   27.69000000  18.71658503  1.50000000
C   25.56000000  19.94634110  1.50000000
C   23.43000000  21.17609717  1.50000000
C   21.30000000  22.40585325  1.50000000
C   4.97000000  18.71658503  1.50000000
C   7.10000000  19.94634110  1.50000000
C   9.23000000  21.17609717  1.50000000
C   11.36000000  22.40585325  1.50000000
C   4.26000000  17.48682895  1.50000000
C   6.39000000  18.71658503  1.50000000
C   8.52000000  19.94634110  1.50000000
C   10.65000000  21.17609717  1.50000000
C   12.78000000  22.40585325  1.50000000
C   4.97000000  16.25707288  1.50000000
C   7.10000000  17.48682895  1.50000000
C   9.23000000  18.71658503  1.50000000
C   11.36000000  19.94634110  1.50000000
C   13.49000000  21.17609717  1.50000000
C   6.39000000  16.25707288  1.50000000
C   8.52000000  17.48682895  1.50000000
C   10.65000000  18.71658503  1.50000000
C   12.78000000  19.94634110  1.50000000
C   7.10000000  15.02731681  1.50000000
C   9.23000000  16.25707288  1.50000000
C   11.36000000  17.48682895  1.50000000
C   13.49000000  18.71658503  1.50000000
C   6.39000000  13.79756073  1.50000000
C   8.52000000  15.02731681  1.50000000
C   10.65000000  16.25707288  1.50000000
C   12.78000000  17.48682895  1.50000000
C   14.91000000  18.71658503  1.50000000
C   7.10000000  12.56780466  1.50000000
C   9.23000000  13.79756073  1.50000000
C   11.36000000  15.02731681  1.50000000
C   13.49000000  16.25707288  1.50000000
C   15.62000000  17.48682895  1.50000000
C   8.52000000  12.56780466  1.50000000
C   10.65000000  13.79756073  1.50000000
C   12.78000000  15.02731681  1.50000000
C   14.91000000  16.25707288  1.50000000
C   11.36000000  12.56780466  1.50000000
C   13.49000000  13.79756073  1.50000000
C   12.78000000  12.56780466  1.50000000
C   19.88000000  0.27024393  1.50000000
C   19.17000000  -0.95951215  1.50000000
C   21.30000000  0.27024393  1.50000000
C   17.75000000  -3.41902429  1.50000000
C   19.88000000  -2.18926822  1.50000000
C   22.01000000  -0.95951215  1.50000000
C   24.14000000  0.27024393  1.50000000
C   17.04000000  -4.64878037  1.50000000
C   19.17000000  -3.41902429  1.50000000
C   21.30000000  -2.18926822  1.50000000
C   23.43000000  -0.95951215  1.50000000
C   25.56000000  0.27024393  1.50000000
C   17.75000000  -5.87853644  1.50000000
C   19.88000000  -4.64878037  1.50000000
C   22.01000000  -3.41902429  1.50000000
C   24.14000000  -2.18926822  1.50000000
C   26.27000000  -0.95951215  1.50000000
C   19.17000000  -5.87853644  1.50000000
C   21.30000000  -4.64878037  1.50000000
C   23.43000000  -3.41902429  1.50000000
C   25.56000000  -2.18926822  1.50000000
C   19.88000000  -7.10829251  1.50000000
C   22.01000000  -5.87853644  1.50000000
C   24.14000000  -4.64878037  1.50000000
C   26.27000000  -3.41902429  1.50000000
C   19.17000000  -8.33804859  1.50000000
C   21.30000000  -7.10829251  1.50000000
C   23.43000000  -5.87853644  1.50000000
C   25.56000000  -4.64878037  1.50000000
C   27.69000000  -3.41902429  1.50000000
C   19.88000000  -9.56780466  1.50000000
C   22.01000000  -8.33804859  1.50000000
C   24.14000000  -7.10829251  1.50000000
C   26.27000000  -5.87853644  1.50000000
C   28.40000000  -4.64878037  1.50000000
C   21.30000000  -9.56780466  1.50000000
C   23.43000000  -8.33804859  1.50000000
C   25.56000000  -7.10829251  1.50000000
C   27.69000000  -5.87853644  1.50000000
