   690
Lattice="59.64000000 0.00000000 0.00000000 0.00000000 14.06780466 0.00000000 0.00000000 0.00000000 3.00000000 " nsc="1 1 1" pbc="T F F" boundary_condition="PERIODIC PERIODIC  UNKNOWN UNKNOWN  UNKNOWN UNKNOWN"
C   0.00000000  1.50000000  1.50000000
C   0.00000000  3.95951215  1.50000000
C   0.00000000  6.41902429  1.50000000
C   0.00000000  8.87853644  1.50000000
C   0.00000000  11.33804859  1.50000000
C   0.71000000  2.72975607  1.50000000
C   0.71000000  5.18926822  1.50000000
C   0.71000000  7.64878037  1.50000000
C   0.71000000  10.10829251  1.50000000
C   0.71000000  12.56780466  1.50000000
C   2.13000000  2.72975607  1.50000000
C   2.13000000  5.18926822  1.50000000
C   2.13000000  7.64878037  1.50000000
C   2.13000000  10.10829251  1.50000000
C   2.13000000  12.56780466  1.50000000
C   2.84000000  1.50000000  1.50000000
C   2.84000000  3.95951215  1.50000000
C   2.84000000  6.41902429  1.50000000
C   2.84000000  8.87853644  1.50000000
C   2.84000000  11.33804859  1.50000000
C   4.26000000  1.50000000  1.50000000
C   4.26000000  3.95951215  1.50000000
C   4.26000000  6.41902429  1.50000000
C   4.26000000  8.87853644  1.50000000
C   4.26000000  11.33804859  1.50000000
C   4.97000000  2.72975607  1.50000000
C   4.97000000  5.18926822  1.50000000
C   4.97000000  7.64878037  1.50000000
C   4.97000000  10.10829251  1.50000000
C   4.97000000  12.56780466  1.50000000
C   6.39000000  2.72975607  1.50000000
C   6.39000000  5.18926822  1.50000000
C   6.39000000  7.64878037  1.50000000
C   6.39000000  10.10829251  1.50000000
C   6.39000000  12.56780466  1.50000000
C   7.10000000  1.50000000  1.50000000
C   7.10000000  3.95951215  1.50000000
C   7.10000000  6.41902429  1.50000000
C   7.10000000  8.87853644  1.50000000
C   7.10000000  11.33804859  1.50000000
C   8.52000000  1.50000000  1.50000000
C   8.52000000  3.95951215  1.50000000
C   8.52000000  6.41902429  1.50000000
C   8.52000000  8.87853644  1.50000000
C   8.52000000  11.33804859  1.50000000
C   9.23000000  2.72975607  1.50000000
C   9.23000000  5.18926822  1.50000000
C   9.23000000  7.64878037  1.50000000
C   9.23000000  10.10829251  1.50000000
C   9.23000000  12.56780466  1.50000000
C   10.65000000  2.72975607  1.50000000
C   10.65000000  5.18926822  1.50000000
C   10.65000000  7.64878037  1.50000000
C   10.65000000  10.10829251  1.50000000
C   10.65000000  12.56780466  1.50000000
C   11.36000000  1.50000000  1.50000000
C   11.36000000  3.95951215  1.50000000
C   11.36000000  6.41902429  1.50000000
C   11.36000000  8.87853644  1.50000000
C   11.36000000  11.33804859  1.50000000
C   12.78000000  1.50000000  1.50000000
C   12.78000000  3.95951215  1.50000000
C   12.78000000  6.41902429  1.50000000
C   12.78000000  8.87853644  1.50000000
C   12.78000000  11.33804859  1.50000000
C   13.49000000  2.72975607  1.50000000
C   13.49000000  5.18926822  1.50000000
C   13.49000000  7.64878037  1.50000000
C   13.49000000  10.10829251  1.50000000
C   13.49000000  12.56780466  1.50000000
C   14.91000000  2.72975607  1.50000000
C   14.91000000  5.18926822  1.50000000
C   14.91000000  7.64878037  1.50000000
C   14.91000000  10.10829251  1.50000000
C   14.91000000  12.56780466  1.50000000
C   15.62000000  1.50000000  1.50000000
C   15.62000000  3.95951215  1.50000000
C   15.62000000  6.41902429  1.50000000
C   15.62000000  8.87853644  1.50000000
C   15.62000000  11.33804859  1.50000000
C   17.04000000  1.50000000  1.50000000
C   17.04000000  3.95951215  1.50000000
C   17.04000000  6.41902429  1.50000000
C   17.04000000  8.87853644  1.50000000
C   17.04000000  11.33804859  1.50000000
C   17.75000000  2.72975607  1.50000000
C   17.75000000  5.18926822  1.50000000
C   17.75000000  7.64878037  1.50000000
C   17.75000000  10.10829251  1.50000000
C   17.75000000  12.56780466  1.50000000
C   19.17000000  2.72975607  1.50000000
C   19.17000000  5.18926822  1.50000000
C   19.17000000  7.64878037  1.50000000
C   19.17000000  10.10829251  1.50000000
C   19.17000000  12.56780466  1.50000000
C   19.88000000  1.50000000  1.50000000
C   19.88000000  3.95951215  1.50000000
C   19.88000000  6.41902429  1.50000000
C   19.88000000  8.87853644  1.50000000
C   19.88000000  11.33804859  1.50000000
C   21.30000000  1.50000000  1.50000000
C   21.30000000  3.95951215  1.50000000
C   21.30000000  6.41902429  1.50000000
C   21.30000000  8.87853644  1.50000000
C   21.30000000  11.33804859  1.50000000
C   22.01000000  2.72975607  1.50000000
C   22.01000000  5.18926822  1.50000000
C   22.01000000  7.64878037  1.50000000
C   22.01000000  10.10829251  1.50000000
C   22.01000000  12.56780466  1.50000000
C   23.43000000  2.72975607  1.50000000
C   23.43000000  5.18926822  1.50000000
C   23.43000000  7.64878037  1.50000000
C   23.43000000  10.10829251  1.50000000
C   23.43000000  12.56780466  1.50000000
C   24.14000000  1.50000000  1.50000000
C   24.14000000  3.95951215  1.50000000
C   24.14000000  6.41902429  1.50000000
C   24.14000000  8.87853644  1.50000000
C   24.14000000  11.33804859  1.50000000
C   25.56000000  1.50000000  1.50000000
C   25.56000000  3.95951215  1.50000000
C   25.56000000  6.41902429  1.50000000
C   25.56000000  8.87853644  1.50000000
C   25.56000000  11.33804859  1.50000000
C   26.27000000  2.72975607  1.50000000
C   26.27000000  5.18926822  1.50000000
C   26.27000000  7.64878037  1.50000000
C   26.27000000  10.10829251  1.50000000
C   26.27000000  12.56780466  1.50000000
C   27.69000000  2.72975607  1.50000000
C   27.69000000  5.18926822  1.50000000
C   27.69000000  7.64878037  1.50000000
C   27.69000000  10.10829251  1.50000000
C   27.69000000  12.56780466  1.50000000
C   28.40000000  1.50000000  1.50000000
C   28.40000000  3.95951215  1.50000000
C   28.40000000  6.41902429  1.50000000
C   28.40000000  8.87853644  1.50000000
C   28.40000000  11.33804859  1.50000000
C   29.82000000  1.50000000  1.50000000
C   29.82000000  3.95951215  1.50000000
C   29.82000000  6.41902429  1.50000000
C   29.82000000  8.87853644  1.50000000
C   29.82000000  11.33804859  1.50000000
C   30.53000000  2.72975607  1.50000000
C   30.53000000  5.18926822  1.50000000
C   30.53000000  7.64878037  1.50000000
C   30.53000000  10.10829251  1.50000000
C   30.53000000  12.56780466  1.50000000
C   31.95000000  2.72975607  1.50000000
C   31.95000000  5.18926822  1.50000000
C   31.95000000  7.64878037  1.50000000
C   31.95000000  10.10829251  1.50000000
C   31.95000000  12.56780466  1.50000000
C   32.66000000  1.50000000  1.50000000
C   32.66000000  3.95951215  1.50000000
C   32.66000000  6.41902429  1.50000000
C   32.66000000  8.87853644  1.50000000
C   32.66000000  11.33804859  1.50000000
C   34.08000000  1.50000000  1.50000000
C   34.08000000  3.95951215  1.50000000
C   34.08000000  6.41902429  1.50000000
C   34.08000000  8.87853644  1.50000000
C   34.08000000  11.33804859  1.50000000
C   34.79000000  2.72975607  1.50000000
C   34.79000000  5.18926822  1.50000000
C   34.79000000  7.64878037  1.50000000
C   34.79000000  10.10829251  1.50000000
C   34.79000000  12.56780466  1.50000000
C   36.21000000  2.72975607  1.50000000
C   36.21000000  5.18926822  1.50000000
C   36.21000000  7.64878037  1.50000000
C   36.21000000  10.10829251  1.50000000
C   36.21000000  12.56780466  1.50000000
C   36.92000000  1.50000000  1.50000000
C   36.92000000  3.95951215  1.50000000
C   36.92000000  6.41902429  1.50000000
C   36.92000000  8.87853644  1.50000000
C   36.92000000  11.33804859  1.50000000
C   38.34000000  1.50000000  1.50000000
C   38.34000000  3.95951215  1.50000000
C   38.34000000  6.41902429  1.50000000
C   38.34000000  8.87853644  1.50000000
C   38.34000000  11.33804859  1.50000000
C   39.05000000  2.72975607  1.50000000
C   39.05000000  5.18926822  1.50000000
C   39.05000000  7.64878037  1.50000000
C   39.05000000  10.10829251  1.50000000
C   39.05000000  12.56780466  1.50000000
C   40.47000000  2.72975607  1.50000000
C   40.47000000  5.18926822  1.50000000
C   40.47000000  7.64878037  1.50000000
C   40.47000000  10.10829251  1.50000000
C   40.47000000  12.56780466  1.50000000
C   41.18000000  1.50000000  1.50000000
C   41.18000000  3.95951215  1.50000000
C   41.18000000  6.41902429  1.50000000
C   41.18000000  8.87853644  1.50000000
C   41.18000000  11.33804859  1.50000000
C   42.60000000  1.50000000  1.50000000
C   42.60000000  3.95951215  1.50000000
C   42.60000000  6.41902429  1.50000000
C   42.60000000  8.87853644  1.50000000
C   42.60000000  11.33804859  1.50000000
C   43.31000000  2.72975607  1.50000000
C   43.31000000  5.18926822  1.50000000
C   43.31000000  7.64878037  1.50000000
C   43.31000000  10.10829251  1.50000000
C   43.31000000  12.56780466  1.50000000
C   44.73000000  2.72975607  1.50000000
C   44.73000000  5.18926822  1.50000000
C   44.73000000  7.64878037  1.50000000
C   44.73000000  10.10829251  1.50000000
C   44.73000000  12.56780466  1.50000000
C   45.44000000  1.50000000  1.50000000
C   45.44000000  3.95951215  1.50000000
C   45.44000000  6.41902429  1.50000000
C   45.44000000  8.87853644  1.50000000
C   45.44000000  11.33804859  1.50000000
C   46.86000000  1.50000000  1.50000000
C   46.86000000  3.95951215  1.50000000
C   46.86000000  6.41902429  1.50000000
C   46.86000000  8.87853644  1.50000000
C   46.86000000  11.33804859  1.50000000
C   47.57000000  2.72975607  1.50000000
C   47.57000000  5.18926822  1.50000000
C   47.57000000  7.64878037  1.50000000
C   47.57000000  10.10829251  1.50000000
C   47.57000000  12.56780466  1.50000000
C   48.99000000  2.72975607  1.50000000
C   48.99000000  5.18926822  1.50000000
C   48.99000000  7.64878037  1.50000000
C   48.99000000  10.10829251  1.50000000
C   48.99000000  12.56780466  1.50000000
C   49.70000000  1.50000000  1.50000000
C   49.70000000  3.95951215  1.50000000
C   49.70000000  6.41902429  1.50000000
C   49.70000000  8.87853644  1.50000000
C   49.70000000  11.33804859  1.50000000
C   51.12000000  1.50000000  1.50000000
C   51.12000000  3.95951215  1.50000000
C   51.12000000  6.41902429  1.50000000
C   51.12000000  8.87853644  1.50000000
C   51.12000000  11.33804859  1.50000000
C   51.83000000  2.72975607  1.50000000
C   51.83000000  5.18926822  1.50000000
C   51.83000000  7.64878037  1.50000000
C   51.83000000  10.10829251  1.50000000
C   51.83000000  12.56780466  1.50000000
C   53.25000000  2.72975607  1.50000000
C   53.25000000  5.18926822  1.50000000
C   53.25000000  7.64878037  1.50000000
C   53.25000000  10.10829251  1.50000000
C   53.25000000  12.56780466  1.50000000
C   53.96000000  1.50000000  1.50000000
C   53.96000000  3.95951215  1.50000000
C   53.96000000  6.41902429  1.50000000
C   53.96000000  8.87853644  1.50000000
C   53.96000000  11.33804859  1.50000000
C   55.38000000  1.50000000  1.50000000
C   55.38000000  3.95951215  1.50000000
C   55.38000000  6.41902429  1.50000000
C   55.38000000  8.87853644  1.50000000
C   55.38000000  11.33804859  1.50000000
C   56.09000000  2.72975607  1.50000000
C   56.09000000  5.18926822  1.50000000
C   56.09000000  7.64878037  1.50000000
C   56.09000000  10.10829251  1.50000000
C   56.09000000  12.56780466  1.50000000
C   57.51000000  2.72975607  1.50000000
C   57.51000000  5.18926822  1.50000000
C   57.51000000  7.64878037  1.50000000
C   57.51000000  10.10829251  1.50000000
C   57.51000000  12.56780466  1.50000000
C   58.22000000  1.50000000  1.50000000
C   58.22000000  3.95951215  1.50000000
C   58.22000000  6.41902429  1.50000000
C   58.22000000  8.87853644  1.50000000
C   58.22000000  11.33804859  1.50000000
C   19.88000000  -20.63560932  1.50000000
C   17.75000000  -19.40585325  1.50000000
C   15.62000000  -18.17609717  1.50000000
C   13.49000000  -16.94634110  1.50000000
C   11.36000000  -15.71658503  1.50000000
C   19.17000000  -19.40585325  1.50000000
C   17.04000000  -18.17609717  1.50000000
C   14.91000000  -16.94634110  1.50000000
C   12.78000000  -15.71658503  1.50000000
C   10.65000000  -14.48682895  1.50000000
C   19.88000000  -18.17609717  1.50000000
C   17.75000000  -16.94634110  1.50000000
C   15.62000000  -15.71658503  1.50000000
C   13.49000000  -14.48682895  1.50000000
C   11.36000000  -13.25707288  1.50000000
C   21.30000000  -18.17609717  1.50000000
C   19.17000000  -16.94634110  1.50000000
C   17.04000000  -15.71658503  1.50000000
C   14.91000000  -14.48682895  1.50000000
C   12.78000000  -13.25707288  1.50000000
C   22.01000000  -16.94634110  1.50000000
C   19.88000000  -15.71658503  1.50000000
C   17.75000000  -14.48682895  1.50000000
C   15.62000000  -13.25707288  1.50000000
C   13.49000000  -12.02731681  1.50000000
C   21.30000000  -15.71658503  1.50000000
C   19.17000000  -14.48682895  1.50000000
C   17.04000000  -13.25707288  1.50000000
C   14.91000000  -12.02731681  1.50000000
C   12.78000000  -10.79756073  1.50000000
C   22.01000000  -14.48682895  1.50000000
C   19.88000000  -13.25707288  1.50000000
C   17.75000000  -12.02731681  1.50000000
C   15.62000000  -10.79756073  1.50000000
C   13.49000000  -9.56780466  1.50000000
C   23.43000000  -14.48682895  1.50000000
C   21.30000000  -13.25707288  1.50000000
C   19.17000000  -12.02731681  1.50000000
C   17.04000000  -10.79756073  1.50000000
C   14.91000000  -9.56780466  1.50000000
C   24.14000000  -13.25707288  1.50000000
C   22.01000000  -12.02731681  1.50000000
C   19.88000000  -10.79756073  1.50000000
C   17.75000000  -9.56780466  1.50000000
C   15.62000000  -8.33804859  1.50000000
C   23.43000000  -12.02731681  1.50000000
C   21.30000000  -10.79756073  1.50000000
C   19.17000000  -9.56780466  1.50000000
C   17.04000000  -8.33804859  1.50000000
C   14.91000000  -7.10829251  1.50000000
C   24.14000000  -10.79756073  1.50000000
C   22.01000000  -9.56780466  1.50000000
C   19.88000000  -8.33804859  1.50000000
C   17.75000000  -7.10829251  1.50000000
C   15.62000000  -5.87853644  1.50000000
C   25.56000000  -10.79756073  1.50000000
C   23.43000000  -9.56780466  1.50000000
C   21.30000000  -8.33804859  1.50000000
C   19.17000000  -7.10829251  1.50000000
C   17.04000000  -5.87853644  1.50000000
C   26.27000000  -9.56780466  1.50000000
C   24.14000000  -8.33804859  1.50000000
C   22.01000000  -7.10829251  1.50000000
C   19.88000000  -5.87853644  1.50000000
C   17.75000000  -4.64878037  1.50000000
C   25.56000000  -8.33804859  1.50000000
C   23.43000000  -7.10829251  1.50000000
C   21.30000000  -5.87853644  1.50000000
C   19.17000000  -4.64878037  1.50000000
C   17.04000000  -3.41902429  1.50000000
C   26.27000000  -7.10829251  1.50000000
C   24.14000000  -5.87853644  1.50000000
C   22.01000000  -4.64878037  1.50000000
C   19.88000000  -3.41902429  1.50000000
C   17.75000000  -2.18926822  1.50000000
C   27.69000000  -7.10829251  1.50000000
C   25.56000000  -5.87853644  1.50000000
C   23.43000000  -4.64878037  1.50000000
C   21.30000000  -3.41902429  1.50000000
C   19.17000000  -2.18926822  1.50000000
C   28.40000000  -5.87853644  1.50000000
C   26.27000000  -4.64878037  1.50000000
C   24.14000000  -3.41902429  1.50000000
C   22.01000000  -2.18926822  1.50000000
C   19.88000000  -0.95951215  1.50000000
C   27.69000000  -4.64878037  1.50000000
C   25.56000000  -3.41902429  1.50000000
C   23.43000000  -2.18926822  1.50000000
C   21.30000000  -0.95951215  1.50000000
C   19.17000000  0.27024393  1.50000000
C   28.40000000  -3.41902429  1.50000000
C   26.27000000  -2.18926822  1.50000000
C   24.14000000  -0.95951215  1.50000000
C   22.01000000  0.27024393  1.50000000
C   29.82000000  -3.41902429  1.50000000
C   27.69000000  -2.18926822  1.50000000
C   25.56000000  -0.95951215  1.50000000
C   23.43000000  0.27024393  1.50000000
C   30.53000000  -2.18926822  1.50000000
C   28.40000000  -0.95951215  1.50000000
C   26.27000000  0.27024393  1.50000000
C   29.82000000  -0.95951215  1.50000000
C   27.69000000  0.27024393  1.50000000
C   30.53000000  0.27024393  1.50000000
C   31.95000000  0.27024393  1.50000000
C   28.40000000  13.79756073  1.50000000
C   29.82000000  13.79756073  1.50000000
C   27.69000000  15.02731681  1.50000000
C   32.66000000  13.79756073  1.50000000
C   30.53000000  15.02731681  1.50000000
C   28.40000000  16.25707288  1.50000000
C   34.08000000  13.79756073  1.50000000
C   31.95000000  15.02731681  1.50000000
C   29.82000000  16.25707288  1.50000000
C   36.92000000  13.79756073  1.50000000
C   34.79000000  15.02731681  1.50000000
C   32.66000000  16.25707288  1.50000000
C   30.53000000  17.48682895  1.50000000
C   38.34000000  13.79756073  1.50000000
C   36.21000000  15.02731681  1.50000000
C   34.08000000  16.25707288  1.50000000
C   31.95000000  17.48682895  1.50000000
C   29.82000000  18.71658503  1.50000000
C   39.05000000  15.02731681  1.50000000
C   36.92000000  16.25707288  1.50000000
C   34.79000000  17.48682895  1.50000000
C   32.66000000  18.71658503  1.50000000
C   30.53000000  19.94634110  1.50000000
C   40.47000000  15.02731681  1.50000000
C   38.34000000  16.25707288  1.50000000
C   36.21000000  17.48682895  1.50000000
C   34.08000000  18.71658503  1.50000000
C   31.95000000  19.94634110  1.50000000
C   41.18000000  16.25707288  1.50000000
C   39.05000000  17.48682895  1.50000000
C   36.92000000  18.71658503  1.50000000
C   34.79000000  19.94634110  1.50000000
C   32.66000000  21.17609717  1.50000000
C   40.47000000  17.48682895  1.50000000
C   38.34000000  18.71658503  1.50000000
C   36.21000000  19.94634110  1.50000000
C   34.08000000  21.17609717  1.50000000
C   31.95000000  22.40585325  1.50000000
C   41.18000000  18.71658503  1.50000000
C   39.05000000  19.94634110  1.50000000
C   36.92000000  21.17609717  1.50000000
C   34.79000000  22.40585325  1.50000000
C   32.66000000  23.63560932  1.50000000
C   42.60000000  18.71658503  1.50000000
C   40.47000000  19.94634110  1.50000000
C   38.34000000  21.17609717  1.50000000
C   36.21000000  22.40585325  1.50000000
C   34.08000000  23.63560932  1.50000000
C   43.31000000  19.94634110  1.50000000
C   41.18000000  21.17609717  1.50000000
C   39.05000000  22.40585325  1.50000000
C   36.92000000  23.63560932  1.50000000
C   34.79000000  24.86536539  1.50000000
C   42.60000000  21.17609717  1.50000000
C   40.47000000  22.40585325  1.50000000
C   38.34000000  23.63560932  1.50000000
C   36.21000000  24.86536539  1.50000000
C   34.08000000  26.09512147  1.50000000
C   43.31000000  22.40585325  1.50000000
C   41.18000000  23.63560932  1.50000000
C   39.05000000  24.86536539  1.50000000
C   36.92000000  26.09512147  1.50000000
C   34.79000000  27.32487754  1.50000000
C   44.73000000  22.40585325  1.50000000
C   42.60000000  23.63560932  1.50000000
C   40.47000000  24.86536539  1.50000000
C   38.34000000  26.09512147  1.50000000
C   36.21000000  27.32487754  1.50000000
C   45.44000000  23.63560932  1.50000000
C   43.31000000  24.86536539  1.50000000
C   41.18000000  26.09512147  1.50000000
C   39.05000000  27.32487754  1.50000000
C   36.92000000  28.55463361  1.50000000
C   44.73000000  24.86536539  1.50000000
C   42.60000000  26.09512147  1.50000000
C   40.47000000  27.32487754  1.50000000
C   38.34000000  28.55463361  1.50000000
C   36.21000000  29.78438969  1.50000000
C   45.44000000  26.09512147  1.50000000
C   43.31000000  27.32487754  1.50000000
C   41.18000000  28.55463361  1.50000000
C   39.05000000  29.78438969  1.50000000
C   36.92000000  31.01414576  1.50000000
C   46.86000000  26.09512147  1.50000000
C   44.73000000  27.32487754  1.50000000
C   42.60000000  28.55463361  1.50000000
C   40.47000000  29.78438969  1.50000000
C   38.34000000  31.01414576  1.50000000
C   47.57000000  27.32487754  1.50000000
C   45.44000000  28.55463361  1.50000000
C   43.31000000  29.78438969  1.50000000
C   41.18000000  31.01414576  1.50000000
C   39.05000000  32.24390183  1.50000000
C   46.86000000  28.55463361  1.50000000
C   44.73000000  29.78438969  1.50000000
C   42.60000000  31.01414576  1.50000000
C   40.47000000  32.24390183  1.50000000
C   38.34000000  33.47365791  1.50000000
C   47.57000000  29.78438969  1.50000000
C   45.44000000  31.01414576  1.50000000
C   43.31000000  32.24390183  1.50000000
C   41.18000000  33.47365791  1.50000000
C   39.05000000  34.70341398  1.50000000
C   48.99000000  29.78438969  1.50000000
C   46.86000000  31.01414576  1.50000000
C   44.73000000  32.24390183  1.50000000
C   42.60000000  33.47365791  1.50000000
C   40.47000000  34.70341398  1.50000000
C   9.23000000  29.78438969  1.50000000
C   11.36000000  31.01414576  1.50000000
C   13.49000000  32.24390183  1.50000000
C   15.62000000  33.47365791  1.50000000
C   17.75000000  34.70341398  1.50000000
C   10.65000000  29.78438969  1.50000000
C   12.78000000  31.01414576  1.50000000
C   14.91000000  32.24390183  1.50000000
C   17.04000000  33.47365791  1.50000000
C   19.17000000  34.70341398  1.50000000
C   11.36000000  28.55463361  1.50000000
C   13.49000000  29.78438969  1.50000000
C   15.62000000  31.01414576  1.50000000
C   17.75000000  32.24390183  1.50000000
C   19.88000000  33.47365791  1.50000000
C   10.65000000  27.32487754  1.50000000
C   12.78000000  28.55463361  1.50000000
C   14.91000000  29.78438969  1.50000000
C   17.04000000  31.01414576  1.50000000
C   19.17000000  32.24390183  1.50000000
C   11.36000000  26.09512147  1.50000000
C   13.49000000  27.32487754  1.50000000
C   15.62000000  28.55463361  1.50000000
C   17.75000000  29.78438969  1.50000000
C   19.88000000  31.01414576  1.50000000
C   12.78000000  26.09512147  1.50000000
C   14.91000000  27.32487754  1.50000000
C   17.04000000  28.55463361  1.50000000
C   19.17000000  29.78438969  1.50000000
C   21.30000000  31.01414576  1.50000000
C   13.49000000  24.86536539  1.50000000
C   15.62000000  26.09512147  1.50000000
C   17.75000000  27.32487754  1.50000000
C   19.88000000  28.55463361  1.50000000
C   22.01000000  29.78438969  1.50000000
C   12.78000000  23.63560932  1.50000000
C   14.91000000  24.86536539  1.50000000
C   17.04000000  26.09512147  1.50000000
C   19.17000000  27.32487754  1.50000000
C   21.30000000  28.55463361  1.50000000
C   13.49000000  22.40585325  1.50000000
C   15.62000000  23.63560932  1.50000000
C   17.75000000  24.86536539  1.50000000
C   19.88000000  26.09512147  1.50000000
C   22.01000000  27.32487754  1.50000000
C   14.91000000  22.40585325  1.50000000
C   17.04000000  23.63560932  1.50000000
C   19.17000000  24.86536539  1.50000000
C   21.30000000  26.09512147  1.50000000
C   23.43000000  27.32487754  1.50000000
C   15.62000000  21.17609717  1.50000000
C   17.75000000  22.40585325  1.50000000
C   19.88000000  23.63560932  1.50000000
C   22.01000000  24.86536539  1.50000000
C   24.14000000  26.09512147  1.50000000
C   14.91000000  19.94634110  1.50000000
C   17.04000000  21.17609717  1.50000000
C   19.17000000  22.40585325  1.50000000
C   21.30000000  23.63560932  1.50000000
C   23.43000000  24.86536539  1.50000000
C   15.62000000  18.71658503  1.50000000
C   17.75000000  19.94634110  1.50000000
C   19.88000000  21.17609717  1.50000000
C   22.01000000  22.40585325  1.50000000
C   24.14000000  23.63560932  1.50000000
C   17.04000000  18.71658503  1.50000000
C   19.17000000  19.94634110  1.50000000
C   21.30000000  21.17609717  1.50000000
C   23.43000000  22.40585325  1.50000000
C   25.56000000  23.63560932  1.50000000
C   17.75000000  17.48682895  1.50000000
C   19.88000000  18.71658503  1.50000000
C   22.01000000  19.94634110  1.50000000
C   24.14000000  21.17609717  1.50000000
C   26.27000000  22.40585325  1.50000000
C   17.04000000  16.25707288  1.50000000
C   19.17000000  17.48682895  1.50000000
C   21.30000000  18.71658503  1.50000000
C   23.43000000  19.94634110  1.50000000
C   25.56000000  21.17609717  1.50000000
C   17.75000000  15.02731681  1.50000000
C   19.88000000  16.25707288  1.50000000
C   22.01000000  17.48682895  1.50000000
C   24.14000000  18.71658503  1.50000000
C   26.27000000  19.94634110  1.50000000
C   19.17000000  15.02731681  1.50000000
C   21.30000000  16.25707288  1.50000000
C   23.43000000  17.48682895  1.50000000
C   25.56000000  18.71658503  1.50000000
C   27.69000000  19.94634110  1.50000000
C   19.88000000  13.79756073  1.50000000
C   22.01000000  15.02731681  1.50000000
C   24.14000000  16.25707288  1.50000000
C   26.27000000  17.48682895  1.50000000
C   28.40000000  18.71658503  1.50000000
C   21.30000000  13.79756073  1.50000000
C   23.43000000  15.02731681  1.50000000
C   25.56000000  16.25707288  1.50000000
C   27.69000000  17.48682895  1.50000000
C   24.14000000  13.79756073  1.50000000
C   26.27000000  15.02731681  1.50000000
C   25.56000000  13.79756073  1.50000000
C   32.66000000  -0.95951215  1.50000000
C   34.79000000  0.27024393  1.50000000
C   31.95000000  -2.18926822  1.50000000
C   34.08000000  -0.95951215  1.50000000
C   36.21000000  0.27024393  1.50000000
C   30.53000000  -4.64878037  1.50000000
C   32.66000000  -3.41902429  1.50000000
C   34.79000000  -2.18926822  1.50000000
C   36.92000000  -0.95951215  1.50000000
C   39.05000000  0.27024393  1.50000000
C   29.82000000  -5.87853644  1.50000000
C   31.95000000  -4.64878037  1.50000000
C   34.08000000  -3.41902429  1.50000000
C   36.21000000  -2.18926822  1.50000000
C   38.34000000  -0.95951215  1.50000000
C   30.53000000  -7.10829251  1.50000000
C   32.66000000  -5.87853644  1.50000000
C   34.79000000  -4.64878037  1.50000000
C   36.92000000  -3.41902429  1.50000000
C   39.05000000  -2.18926822  1.50000000
C   31.95000000  -7.10829251  1.50000000
C   34.08000000  -5.87853644  1.50000000
C   36.21000000  -4.64878037  1.50000000
C   38.34000000  -3.41902429  1.50000000
C   40.47000000  -2.18926822  1.50000000
C   32.66000000  -8.33804859  1.50000000
C   34.79000000  -7.10829251  1.50000000
C   36.92000000  -5.87853644  1.50000000
C   39.05000000  -4.64878037  1.50000000
C   41.18000000  -3.41902429  1.50000000
C   31.95000000  -9.56780466  1.50000000
C   34.08000000  -8.33804859  1.50000000
C   36.21000000  -7.10829251  1.50000000
C   38.34000000  -5.87853644  1.50000000
C   40.47000000  -4.64878037  1.50000000
C   32.66000000  -10.79756073  1.50000000
C   34.79000000  -9.56780466  1.50000000
C   36.92000000  -8.33804859  1.50000000
C   39.05000000  -7.10829251  1.50000000
C   41.18000000  -5.87853644  1.50000000
C   34.08000000  -10.79756073  1.50000000
C   36.21000000  -9.56780466  1.50000000
C   38.34000000  -8.33804859  1.50000000
C   40.47000000  -7.10829251  1.50000000
C   42.60000000  -5.87853644  1.50000000
C   34.79000000  -12.02731681  1.50000000
C   36.92000000  -10.79756073  1.50000000
C   39.05000000  -9.56780466  1.50000000
C   41.18000000  -8.33804859  1.50000000
C   43.31000000  -7.10829251  1.50000000
C   34.08000000  -13.25707288  1.50000000
C   36.21000000  -12.02731681  1.50000000
C   38.34000000  -10.79756073  1.50000000
C   40.47000000  -9.56780466  1.50000000
C   42.60000000  -8.33804859  1.50000000
C   34.79000000  -14.48682895  1.50000000
C   36.92000000  -13.25707288  1.50000000
C   39.05000000  -12.02731681  1.50000000
C   41.18000000  -10.79756073  1.50000000
C   43.31000000  -9.56780466  1.50000000
C   36.21000000  -14.48682895  1.50000000
C   38.34000000  -13.25707288  1.50000000
C   40.47000000  -12.02731681  1.50000000
C   42.60000000  -10.79756073  1.50000000
C   44.73000000  -9.56780466  1.50000000
C   36.92000000  -15.71658503  1.50000000
C   39.05000000  -14.48682895  1.50000000
C   41.18000000  -13.25707288  1.50000000
C   43.31000000  -12.02731681  1.50000000
C   45.44000000  -10.79756073  1.50000000
C   36.21000000  -16.94634110  1.50000000
C   38.34000000  -15.71658503  1.50000000
C   40.47000000  -14.48682895  1.50000000
C   42.60000000  -13.25707288  1.50000000
C   44.73000000  -12.02731681  1.50000000
C   36.92000000  -18.17609717  1.50000000
C   39.05000000  -16.94634110  1.50000000
C   41.18000000  -15.71658503  1.50000000
C   43.31000000  -14.48682895  1.50000000
C   45.44000000  -13.25707288  1.50000000
C   38.34000000  -18.17609717  1.50000000
C   40.47000000  -16.94634110  1.50000000
C   42.60000000  -15.71658503  1.50000000
C   44.73000000  -14.48682895  1.50000000
C   46.86000000  -13.25707288  1.50000000
C   39.05000000  -19.40585325  1.50000000
C   41.18000000  -18.17609717  1.50000000
C   43.31000000  -16.94634110  1.50000000
C   45.44000000  -15.71658503  1.50000000
C   47.57000000  -14.48682895  1.50000000
C   38.34000000  -20.63560932  1.50000000
C   40.47000000  -19.40585325  1.50000000
C   42.60000000  -18.17609717  1.50000000
C   44.73000000  -16.94634110  1.50000000
C   46.86000000  -15.71658503  1.50000000
