   120
Lattice="42.60000000 0.00000000 0.00000000 0.00000000 9.14878037 0.00000000 0.00000000 0.00000000 3.00000000 " nsc="1 1 1" pbc="T F F" boundary_condition="PERIODIC PERIODIC  UNKNOWN UNKNOWN  UNKNOWN UNKNOWN"
C   0.00000000  1.50000000  1.50000000
C   0.00000000  3.95951215  1.50000000
C   0.00000000  6.41902429  1.50000000
C   0.71000000  2.72975607  1.50000000
C   0.71000000  5.18926822  1.50000000
C   0.71000000  7.64878037  1.50000000
C   2.13000000  2.72975607  1.50000000
C   2.13000000  5.18926822  1.50000000
C   2.13000000  7.64878037  1.50000000
C   2.84000000  1.50000000  1.50000000
C   2.84000000  3.95951215  1.50000000
C   2.84000000  6.41902429  1.50000000
C   4.26000000  1.50000000  1.50000000
C   4.26000000  3.95951215  1.50000000
C   4.26000000  6.41902429  1.50000000
C   4.97000000  2.72975607  1.50000000
C   4.97000000  5.18926822  1.50000000
C   4.97000000  7.64878037  1.50000000
C   6.39000000  2.72975607  1.50000000
C   6.39000000  5.18926822  1.50000000
C   6.39000000  7.64878037  1.50000000
C   7.10000000  1.50000000  1.50000000
C   7.10000000  3.95951215  1.50000000
C   7.10000000  6.41902429  1.50000000
C   8.52000000  1.50000000  1.50000000
C   8.52000000  3.95951215  1.50000000
C   8.52000000  6.41902429  1.50000000
C   9.23000000  2.72975607  1.50000000
C   9.23000000  5.18926822  1.50000000
C   9.23000000  7.64878037  1.50000000
C   10.65000000  2.72975607  1.50000000
C   10.65000000  5.18926822  1.50000000
C   10.65000000  7.64878037  1.50000000
C   11.36000000  1.50000000  1.50000000
C   11.36000000  3.95951215  1.50000000
C   11.36000000  6.41902429  1.50000000
C   12.78000000  1.50000000  1.50000000
C   12.78000000  3.95951215  1.50000000
C   12.78000000  6.41902429  1.50000000
C   13.49000000  2.72975607  1.50000000
C   13.49000000  5.18926822  1.50000000
C   13.49000000  7.64878037  1.50000000
C   14.91000000  2.72975607  1.50000000
C   14.91000000  5.18926822  1.50000000
C   14.91000000  7.64878037  1.50000000
C   15.62000000  1.50000000  1.50000000
C   15.62000000  3.95951215  1.50000000
C   15.62000000  6.41902429  1.50000000
C   17.04000000  1.50000000  1.50000000
C   17.04000000  3.95951215  1.50000000
C   17.04000000  6.41902429  1.50000000
C   17.75000000  2.72975607  1.50000000
C   17.75000000  5.18926822  1.50000000
C   17.75000000  7.64878037  1.50000000
C   19.17000000  2.72975607  1.50000000
C   19.17000000  5.18926822  1.50000000
C   19.17000000  7.64878037  1.50000000
C   19.88000000  1.50000000  1.50000000
C   19.88000000  3.95951215  1.50000000
C   19.88000000  6.41902429  1.50000000
C   21.30000000  1.50000000  1.50000000
C   21.30000000  3.95951215  1.50000000
C   21.30000000  6.41902429  1.50000000
C   22.01000000  2.72975607  1.50000000
C   22.01000000  5.18926822  1.50000000
C   22.01000000  7.64878037  1.50000000
C   23.43000000  2.72975607  1.50000000
C   23.43000000  5.18926822  1.50000000
C   23.43000000  7.64878037  1.50000000
C   24.14000000  1.50000000  1.50000000
C   24.14000000  3.95951215  1.50000000
C   24.14000000  6.41902429  1.50000000
C   25.56000000  1.50000000  1.50000000
C   25.56000000  3.95951215  1.50000000
C   25.56000000  6.41902429  1.50000000
C   26.27000000  2.72975607  1.50000000
C   26.27000000  5.18926822  1.50000000
C   26.27000000  7.64878037  1.50000000
C   27.69000000  2.72975607  1.50000000
C   27.69000000  5.18926822  1.50000000
C   27.69000000  7.64878037  1.50000000
C   28.40000000  1.50000000  1.50000000
C   28.40000000  3.95951215  1.50000000
C   28.40000000  6.41902429  1.50000000
C   29.82000000  1.50000000  1.50000000
C   29.82000000  3.95951215  1.50000000
C   29.82000000  6.41902429  1.50000000
C   30.53000000  2.72975607  1.50000000
C   30.53000000  5.18926822  1.50000000
C   30.53000000  7.64878037  1.50000000
C   31.95000000  2.72975607  1.50000000
C   31.95000000  5.18926822  1.50000000
C   31.95000000  7.64878037  1.50000000
C   32.66000000  1.50000000  1.50000000
C   32.66000000  3.95951215  1.50000000
C   32.66000000  6.41902429  1.50000000
C   34.08000000  1.50000000  1.50000000
C   34.08000000  3.95951215  1.50000000
C   34.08000000  6.41902429  1.50000000
C   34.79000000  2.72975607  1.50000000
C   34.79000000  5.18926822  1.50000000
C   34.79000000  7.64878037  1.50000000
C   36.21000000  2.72975607  1.50000000
C   36.21000000  5.18926822  1.50000000
C   36.21000000  7.64878037  1.50000000
C   36.92000000  1.50000000  1.50000000
C   36.92000000  3.95951215  1.50000000
C   36.92000000  6.41902429  1.50000000
C   38.34000000  1.50000000  1.50000000
C   38.34000000  3.95951215  1.50000000
C   38.34000000  6.41902429  1.50000000
C   39.05000000  2.72975607  1.50000000
C   39.05000000  5.18926822  1.50000000
C   39.05000000  7.64878037  1.50000000
C   40.47000000  2.72975607  1.50000000
C   40.47000000  5.18926822  1.50000000
C   40.47000000  7.64878037  1.50000000
C   41.18000000  1.50000000  1.50000000
C   41.18000000  3.95951215  1.50000000
C   41.18000000  6.41902429  1.50000000
