   456
Lattice="51.12000000 0.00000000 0.00000000 0.00000000 25.13560932 0.00000000 0.00000000 0.00000000 3.00000000 " nsc="1 1 1" pbc="T F F" boundary_condition="PERIODIC PERIODIC  UNKNOWN UNKNOWN  UNKNOWN UNKNOWN"
C   0.00000000  2.72975607  1.50000000
C   0.00000000  5.18926822  1.50000000
C   0.00000000  7.64878037  1.50000000
C   0.00000000  10.10829251  1.50000000
C   0.00000000  12.56780466  1.50000000
C   0.00000000  15.02731681  1.50000000
C   0.00000000  17.48682895  1.50000000
C   0.00000000  19.94634110  1.50000000
C   0.00000000  22.40585325  1.50000000
C   0.71000000  1.50000000  1.50000000
C   0.71000000  3.95951215  1.50000000
C   0.71000000  6.41902429  1.50000000
C   0.71000000  8.87853644  1.50000000
C   0.71000000  11.33804859  1.50000000
C   0.71000000  13.79756073  1.50000000
C   0.71000000  16.25707288  1.50000000
C   0.71000000  18.71658503  1.50000000
C   0.71000000  21.17609717  1.50000000
C   0.71000000  23.63560932  1.50000000
C   2.13000000  1.50000000  1.50000000
C   2.13000000  3.95951215  1.50000000
C   2.13000000  6.41902429  1.50000000
C   2.13000000  8.87853644  1.50000000
C   2.13000000  11.33804859  1.50000000
C   2.13000000  13.79756073  1.50000000
C   2.13000000  16.25707288  1.50000000
C   2.13000000  18.71658503  1.50000000
C   2.13000000  21.17609717  1.50000000
C   2.13000000  23.63560932  1.50000000
C   2.84000000  2.72975607  1.50000000
C   2.84000000  5.18926822  1.50000000
C   2.84000000  7.64878037  1.50000000
C   2.84000000  10.10829251  1.50000000
C   2.84000000  12.56780466  1.50000000
C   2.84000000  15.02731681  1.50000000
C   2.84000000  17.48682895  1.50000000
C   2.84000000  19.94634110  1.50000000
C   2.84000000  22.40585325  1.50000000
C   4.26000000  2.72975607  1.50000000
C   4.26000000  5.18926822  1.50000000
C   4.26000000  7.64878037  1.50000000
C   4.26000000  10.10829251  1.50000000
C   4.26000000  12.56780466  1.50000000
C   4.26000000  15.02731681  1.50000000
C   4.26000000  17.48682895  1.50000000
C   4.26000000  19.94634110  1.50000000
C   4.26000000  22.40585325  1.50000000
C   4.97000000  1.50000000  1.50000000
C   4.97000000  3.95951215  1.50000000
C   4.97000000  6.41902429  1.50000000
C   4.97000000  8.87853644  1.50000000
C   4.97000000  11.33804859  1.50000000
C   4.97000000  13.79756073  1.50000000
C   4.97000000  16.25707288  1.50000000
C   4.97000000  18.71658503  1.50000000
C   4.97000000  21.17609717  1.50000000
C   4.97000000  23.63560932  1.50000000
C   6.39000000  1.50000000  1.50000000
C   6.39000000  3.95951215  1.50000000
C   6.39000000  6.41902429  1.50000000
C   6.39000000  8.87853644  1.50000000
C   6.39000000  11.33804859  1.50000000
C   6.39000000  13.79756073  1.50000000
C   6.39000000  16.25707288  1.50000000
C   6.39000000  18.71658503  1.50000000
C   6.39000000  21.17609717  1.50000000
C   6.39000000  23.63560932  1.50000000
C   7.10000000  2.72975607  1.50000000
C   7.10000000  5.18926822  1.50000000
C   7.10000000  7.64878037  1.50000000
C   7.10000000  10.10829251  1.50000000
C   7.10000000  12.56780466  1.50000000
C   7.10000000  15.02731681  1.50000000
C   7.10000000  17.48682895  1.50000000
C   7.10000000  19.94634110  1.50000000
C   7.10000000  22.40585325  1.50000000
C   8.52000000  2.72975607  1.50000000
C   8.52000000  5.18926822  1.50000000
C   8.52000000  7.64878037  1.50000000
C   8.52000000  10.10829251  1.50000000
C   8.52000000  12.56780466  1.50000000
C   8.52000000  15.02731681  1.50000000
C   8.52000000  17.48682895  1.50000000
C   8.52000000  19.94634110  1.50000000
C   8.52000000  22.40585325  1.50000000
C   9.23000000  1.50000000  1.50000000
C   9.23000000  3.95951215  1.50000000
C   9.23000000  6.41902429  1.50000000
C   9.23000000  8.87853644  1.50000000
C   9.23000000  11.33804859  1.50000000
C   9.23000000  13.79756073  1.50000000
C   9.23000000  16.25707288  1.50000000
C   9.23000000  18.71658503  1.50000000
C   9.23000000  21.17609717  1.50000000
C   9.23000000  23.63560932  1.50000000
C   10.65000000  1.50000000  1.50000000
C   10.65000000  3.95951215  1.50000000
C   10.65000000  6.41902429  1.50000000
C   10.65000000  8.87853644  1.50000000
C   10.65000000  11.33804859  1.50000000
C   10.65000000  13.79756073  1.50000000
C   10.65000000  16.25707288  1.50000000
C   10.65000000  18.71658503  1.50000000
C   10.65000000  21.17609717  1.50000000
C   10.65000000  23.63560932  1.50000000
C   11.36000000  2.72975607  1.50000000
C   11.36000000  5.18926822  1.50000000
C   11.36000000  7.64878037  1.50000000
C   11.36000000  10.10829251  1.50000000
C   11.36000000  12.56780466  1.50000000
C   11.36000000  15.02731681  1.50000000
C   11.36000000  17.48682895  1.50000000
C   11.36000000  19.94634110  1.50000000
C   11.36000000  22.40585325  1.50000000
C   12.78000000  2.72975607  1.50000000
C   12.78000000  5.18926822  1.50000000
C   12.78000000  7.64878037  1.50000000
C   12.78000000  10.10829251  1.50000000
C   12.78000000  12.56780466  1.50000000
C   12.78000000  15.02731681  1.50000000
C   12.78000000  17.48682895  1.50000000
C   12.78000000  19.94634110  1.50000000
C   12.78000000  22.40585325  1.50000000
C   13.49000000  1.50000000  1.50000000
C   13.49000000  3.95951215  1.50000000
C   13.49000000  6.41902429  1.50000000
C   13.49000000  8.87853644  1.50000000
C   13.49000000  11.33804859  1.50000000
C   13.49000000  13.79756073  1.50000000
C   13.49000000  16.25707288  1.50000000
C   13.49000000  18.71658503  1.50000000
C   13.49000000  21.17609717  1.50000000
C   13.49000000  23.63560932  1.50000000
C   14.91000000  1.50000000  1.50000000
C   14.91000000  3.95951215  1.50000000
C   14.91000000  6.41902429  1.50000000
C   14.91000000  8.87853644  1.50000000
C   14.91000000  11.33804859  1.50000000
C   14.91000000  13.79756073  1.50000000
C   14.91000000  16.25707288  1.50000000
C   14.91000000  18.71658503  1.50000000
C   14.91000000  21.17609717  1.50000000
C   14.91000000  23.63560932  1.50000000
C   15.62000000  2.72975607  1.50000000
C   15.62000000  5.18926822  1.50000000
C   15.62000000  7.64878037  1.50000000
C   15.62000000  10.10829251  1.50000000
C   15.62000000  12.56780466  1.50000000
C   15.62000000  15.02731681  1.50000000
C   15.62000000  17.48682895  1.50000000
C   15.62000000  19.94634110  1.50000000
C   15.62000000  22.40585325  1.50000000
C   17.04000000  2.72975607  1.50000000
C   17.04000000  5.18926822  1.50000000
C   17.04000000  7.64878037  1.50000000
C   17.04000000  10.10829251  1.50000000
C   17.04000000  12.56780466  1.50000000
C   17.04000000  15.02731681  1.50000000
C   17.04000000  17.48682895  1.50000000
C   17.04000000  19.94634110  1.50000000
C   17.04000000  22.40585325  1.50000000
C   17.75000000  1.50000000  1.50000000
C   17.75000000  3.95951215  1.50000000
C   17.75000000  6.41902429  1.50000000
C   17.75000000  8.87853644  1.50000000
C   17.75000000  11.33804859  1.50000000
C   17.75000000  13.79756073  1.50000000
C   17.75000000  16.25707288  1.50000000
C   17.75000000  18.71658503  1.50000000
C   17.75000000  21.17609717  1.50000000
C   17.75000000  23.63560932  1.50000000
C   19.17000000  1.50000000  1.50000000
C   19.17000000  3.95951215  1.50000000
C   19.17000000  6.41902429  1.50000000
C   19.17000000  8.87853644  1.50000000
C   19.17000000  11.33804859  1.50000000
C   19.17000000  13.79756073  1.50000000
C   19.17000000  16.25707288  1.50000000
C   19.17000000  18.71658503  1.50000000
C   19.17000000  21.17609717  1.50000000
C   19.17000000  23.63560932  1.50000000
C   19.88000000  2.72975607  1.50000000
C   19.88000000  5.18926822  1.50000000
C   19.88000000  7.64878037  1.50000000
C   19.88000000  10.10829251  1.50000000
C   19.88000000  12.56780466  1.50000000
C   19.88000000  15.02731681  1.50000000
C   19.88000000  17.48682895  1.50000000
C   19.88000000  19.94634110  1.50000000
C   19.88000000  22.40585325  1.50000000
C   21.30000000  2.72975607  1.50000000
C   21.30000000  5.18926822  1.50000000
C   21.30000000  7.64878037  1.50000000
C   21.30000000  10.10829251  1.50000000
C   21.30000000  12.56780466  1.50000000
C   21.30000000  15.02731681  1.50000000
C   21.30000000  17.48682895  1.50000000
C   21.30000000  19.94634110  1.50000000
C   21.30000000  22.40585325  1.50000000
C   22.01000000  1.50000000  1.50000000
C   22.01000000  3.95951215  1.50000000
C   22.01000000  6.41902429  1.50000000
C   22.01000000  8.87853644  1.50000000
C   22.01000000  11.33804859  1.50000000
C   22.01000000  13.79756073  1.50000000
C   22.01000000  16.25707288  1.50000000
C   22.01000000  18.71658503  1.50000000
C   22.01000000  21.17609717  1.50000000
C   22.01000000  23.63560932  1.50000000
C   23.43000000  1.50000000  1.50000000
C   23.43000000  3.95951215  1.50000000
C   23.43000000  6.41902429  1.50000000
C   23.43000000  8.87853644  1.50000000
C   23.43000000  11.33804859  1.50000000
C   23.43000000  13.79756073  1.50000000
C   23.43000000  16.25707288  1.50000000
C   23.43000000  18.71658503  1.50000000
C   23.43000000  21.17609717  1.50000000
C   23.43000000  23.63560932  1.50000000
C   24.14000000  2.72975607  1.50000000
C   24.14000000  5.18926822  1.50000000
C   24.14000000  7.64878037  1.50000000
C   24.14000000  10.10829251  1.50000000
C   24.14000000  12.56780466  1.50000000
C   24.14000000  15.02731681  1.50000000
C   24.14000000  17.48682895  1.50000000
C   24.14000000  19.94634110  1.50000000
C   24.14000000  22.40585325  1.50000000
C   25.56000000  2.72975607  1.50000000
C   25.56000000  5.18926822  1.50000000
C   25.56000000  7.64878037  1.50000000
C   25.56000000  10.10829251  1.50000000
C   25.56000000  12.56780466  1.50000000
C   25.56000000  15.02731681  1.50000000
C   25.56000000  17.48682895  1.50000000
C   25.56000000  19.94634110  1.50000000
C   25.56000000  22.40585325  1.50000000
C   26.27000000  1.50000000  1.50000000
C   26.27000000  3.95951215  1.50000000
C   26.27000000  6.41902429  1.50000000
C   26.27000000  8.87853644  1.50000000
C   26.27000000  11.33804859  1.50000000
C   26.27000000  13.79756073  1.50000000
C   26.27000000  16.25707288  1.50000000
C   26.27000000  18.71658503  1.50000000
C   26.27000000  21.17609717  1.50000000
C   26.27000000  23.63560932  1.50000000
C   27.69000000  1.50000000  1.50000000
C   27.69000000  3.95951215  1.50000000
C   27.69000000  6.41902429  1.50000000
C   27.69000000  8.87853644  1.50000000
C   27.69000000  11.33804859  1.50000000
C   27.69000000  13.79756073  1.50000000
C   27.69000000  16.25707288  1.50000000
C   27.69000000  18.71658503  1.50000000
C   27.69000000  21.17609717  1.50000000
C   27.69000000  23.63560932  1.50000000
C   28.40000000  2.72975607  1.50000000
C   28.40000000  5.18926822  1.50000000
C   28.40000000  7.64878037  1.50000000
C   28.40000000  10.10829251  1.50000000
C   28.40000000  12.56780466  1.50000000
C   28.40000000  15.02731681  1.50000000
C   28.40000000  17.48682895  1.50000000
C   28.40000000  19.94634110  1.50000000
C   28.40000000  22.40585325  1.50000000
C   29.82000000  2.72975607  1.50000000
C   29.82000000  5.18926822  1.50000000
C   29.82000000  7.64878037  1.50000000
C   29.82000000  10.10829251  1.50000000
C   29.82000000  12.56780466  1.50000000
C   29.82000000  15.02731681  1.50000000
C   29.82000000  17.48682895  1.50000000
C   29.82000000  19.94634110  1.50000000
C   29.82000000  22.40585325  1.50000000
C   30.53000000  1.50000000  1.50000000
C   30.53000000  3.95951215  1.50000000
C   30.53000000  6.41902429  1.50000000
C   30.53000000  8.87853644  1.50000000
C   30.53000000  11.33804859  1.50000000
C   30.53000000  13.79756073  1.50000000
C   30.53000000  16.25707288  1.50000000
C   30.53000000  18.71658503  1.50000000
C   30.53000000  21.17609717  1.50000000
C   30.53000000  23.63560932  1.50000000
C   31.95000000  1.50000000  1.50000000
C   31.95000000  3.95951215  1.50000000
C   31.95000000  6.41902429  1.50000000
C   31.95000000  8.87853644  1.50000000
C   31.95000000  11.33804859  1.50000000
C   31.95000000  13.79756073  1.50000000
C   31.95000000  16.25707288  1.50000000
C   31.95000000  18.71658503  1.50000000
C   31.95000000  21.17609717  1.50000000
C   31.95000000  23.63560932  1.50000000
C   32.66000000  2.72975607  1.50000000
C   32.66000000  5.18926822  1.50000000
C   32.66000000  7.64878037  1.50000000
C   32.66000000  10.10829251  1.50000000
C   32.66000000  12.56780466  1.50000000
C   32.66000000  15.02731681  1.50000000
C   32.66000000  17.48682895  1.50000000
C   32.66000000  19.94634110  1.50000000
C   32.66000000  22.40585325  1.50000000
C   34.08000000  2.72975607  1.50000000
C   34.08000000  5.18926822  1.50000000
C   34.08000000  7.64878037  1.50000000
C   34.08000000  10.10829251  1.50000000
C   34.08000000  12.56780466  1.50000000
C   34.08000000  15.02731681  1.50000000
C   34.08000000  17.48682895  1.50000000
C   34.08000000  19.94634110  1.50000000
C   34.08000000  22.40585325  1.50000000
C   34.79000000  1.50000000  1.50000000
C   34.79000000  3.95951215  1.50000000
C   34.79000000  6.41902429  1.50000000
C   34.79000000  8.87853644  1.50000000
C   34.79000000  11.33804859  1.50000000
C   34.79000000  13.79756073  1.50000000
C   34.79000000  16.25707288  1.50000000
C   34.79000000  18.71658503  1.50000000
C   34.79000000  21.17609717  1.50000000
C   34.79000000  23.63560932  1.50000000
C   36.21000000  1.50000000  1.50000000
C   36.21000000  3.95951215  1.50000000
C   36.21000000  6.41902429  1.50000000
C   36.21000000  8.87853644  1.50000000
C   36.21000000  11.33804859  1.50000000
C   36.21000000  13.79756073  1.50000000
C   36.21000000  16.25707288  1.50000000
C   36.21000000  18.71658503  1.50000000
C   36.21000000  21.17609717  1.50000000
C   36.21000000  23.63560932  1.50000000
C   36.92000000  2.72975607  1.50000000
C   36.92000000  5.18926822  1.50000000
C   36.92000000  7.64878037  1.50000000
C   36.92000000  10.10829251  1.50000000
C   36.92000000  12.56780466  1.50000000
C   36.92000000  15.02731681  1.50000000
C   36.92000000  17.48682895  1.50000000
C   36.92000000  19.94634110  1.50000000
C   36.92000000  22.40585325  1.50000000
C   38.34000000  2.72975607  1.50000000
C   38.34000000  5.18926822  1.50000000
C   38.34000000  7.64878037  1.50000000
C   38.34000000  10.10829251  1.50000000
C   38.34000000  12.56780466  1.50000000
C   38.34000000  15.02731681  1.50000000
C   38.34000000  17.48682895  1.50000000
C   38.34000000  19.94634110  1.50000000
C   38.34000000  22.40585325  1.50000000
C   39.05000000  1.50000000  1.50000000
C   39.05000000  3.95951215  1.50000000
C   39.05000000  6.41902429  1.50000000
C   39.05000000  8.87853644  1.50000000
C   39.05000000  11.33804859  1.50000000
C   39.05000000  13.79756073  1.50000000
C   39.05000000  16.25707288  1.50000000
C   39.05000000  18.71658503  1.50000000
C   39.05000000  21.17609717  1.50000000
C   39.05000000  23.63560932  1.50000000
C   40.47000000  1.50000000  1.50000000
C   40.47000000  3.95951215  1.50000000
C   40.47000000  6.41902429  1.50000000
C   40.47000000  8.87853644  1.50000000
C   40.47000000  11.33804859  1.50000000
C   40.47000000  13.79756073  1.50000000
C   40.47000000  16.25707288  1.50000000
C   40.47000000  18.71658503  1.50000000
C   40.47000000  21.17609717  1.50000000
C   40.47000000  23.63560932  1.50000000
C   41.18000000  2.72975607  1.50000000
C   41.18000000  5.18926822  1.50000000
C   41.18000000  7.64878037  1.50000000
C   41.18000000  10.10829251  1.50000000
C   41.18000000  12.56780466  1.50000000
C   41.18000000  15.02731681  1.50000000
C   41.18000000  17.48682895  1.50000000
C   41.18000000  19.94634110  1.50000000
C   41.18000000  22.40585325  1.50000000
C   42.60000000  2.72975607  1.50000000
C   42.60000000  5.18926822  1.50000000
C   42.60000000  7.64878037  1.50000000
C   42.60000000  10.10829251  1.50000000
C   42.60000000  12.56780466  1.50000000
C   42.60000000  15.02731681  1.50000000
C   42.60000000  17.48682895  1.50000000
C   42.60000000  19.94634110  1.50000000
C   42.60000000  22.40585325  1.50000000
C   43.31000000  1.50000000  1.50000000
C   43.31000000  3.95951215  1.50000000
C   43.31000000  6.41902429  1.50000000
C   43.31000000  8.87853644  1.50000000
C   43.31000000  11.33804859  1.50000000
C   43.31000000  13.79756073  1.50000000
C   43.31000000  16.25707288  1.50000000
C   43.31000000  18.71658503  1.50000000
C   43.31000000  21.17609717  1.50000000
C   43.31000000  23.63560932  1.50000000
C   44.73000000  1.50000000  1.50000000
C   44.73000000  3.95951215  1.50000000
C   44.73000000  6.41902429  1.50000000
C   44.73000000  8.87853644  1.50000000
C   44.73000000  11.33804859  1.50000000
C   44.73000000  13.79756073  1.50000000
C   44.73000000  16.25707288  1.50000000
C   44.73000000  18.71658503  1.50000000
C   44.73000000  21.17609717  1.50000000
C   44.73000000  23.63560932  1.50000000
C   45.44000000  2.72975607  1.50000000
C   45.44000000  5.18926822  1.50000000
C   45.44000000  7.64878037  1.50000000
C   45.44000000  10.10829251  1.50000000
C   45.44000000  12.56780466  1.50000000
C   45.44000000  15.02731681  1.50000000
C   45.44000000  17.48682895  1.50000000
C   45.44000000  19.94634110  1.50000000
C   45.44000000  22.40585325  1.50000000
C   46.86000000  2.72975607  1.50000000
C   46.86000000  5.18926822  1.50000000
C   46.86000000  7.64878037  1.50000000
C   46.86000000  10.10829251  1.50000000
C   46.86000000  12.56780466  1.50000000
C   46.86000000  15.02731681  1.50000000
C   46.86000000  17.48682895  1.50000000
C   46.86000000  19.94634110  1.50000000
C   46.86000000  22.40585325  1.50000000
C   47.57000000  1.50000000  1.50000000
C   47.57000000  3.95951215  1.50000000
C   47.57000000  6.41902429  1.50000000
C   47.57000000  8.87853644  1.50000000
C   47.57000000  11.33804859  1.50000000
C   47.57000000  13.79756073  1.50000000
C   47.57000000  16.25707288  1.50000000
C   47.57000000  18.71658503  1.50000000
C   47.57000000  21.17609717  1.50000000
C   47.57000000  23.63560932  1.50000000
C   48.99000000  1.50000000  1.50000000
C   48.99000000  3.95951215  1.50000000
C   48.99000000  6.41902429  1.50000000
C   48.99000000  8.87853644  1.50000000
C   48.99000000  11.33804859  1.50000000
C   48.99000000  13.79756073  1.50000000
C   48.99000000  16.25707288  1.50000000
C   48.99000000  18.71658503  1.50000000
C   48.99000000  21.17609717  1.50000000
C   48.99000000  23.63560932  1.50000000
C   49.70000000  2.72975607  1.50000000
C   49.70000000  5.18926822  1.50000000
C   49.70000000  7.64878037  1.50000000
C   49.70000000  10.10829251  1.50000000
C   49.70000000  12.56780466  1.50000000
C   49.70000000  15.02731681  1.50000000
C   49.70000000  17.48682895  1.50000000
C   49.70000000  19.94634110  1.50000000
C   49.70000000  22.40585325  1.50000000
