   36
Lattice="25.56000000 0.00000000 0.00000000 0.00000000 5.45951215 0.00000000 0.00000000 0.00000000 3.00000000 " nsc="1 1 1" pbc="T F F" boundary_condition="PERIODIC PERIODIC  UNKNOWN UNKNOWN  UNKNOWN UNKNOWN"
C   0.00000000  2.72975607  1.50000000
C   0.71000000  1.50000000  1.50000000
C   0.71000000  3.95951215  1.50000000
C   2.13000000  1.50000000  1.50000000
C   2.13000000  3.95951215  1.50000000
C   2.84000000  2.72975607  1.50000000
C   4.26000000  2.72975607  1.50000000
C   4.97000000  1.50000000  1.50000000
C   4.97000000  3.95951215  1.50000000
C   6.39000000  1.50000000  1.50000000
C   6.39000000  3.95951215  1.50000000
C   7.10000000  2.72975607  1.50000000
C   8.52000000  2.72975607  1.50000000
C   9.23000000  1.50000000  1.50000000
C   9.23000000  3.95951215  1.50000000
C   10.65000000  1.50000000  1.50000000
C   10.65000000  3.95951215  1.50000000
C   11.36000000  2.72975607  1.50000000
C   12.78000000  2.72975607  1.50000000
C   13.49000000  1.50000000  1.50000000
C   13.49000000  3.95951215  1.50000000
C   14.91000000  1.50000000  1.50000000
C   14.91000000  3.95951215  1.50000000
C   15.62000000  2.72975607  1.50000000
C   17.04000000  2.72975607  1.50000000
C   17.75000000  1.50000000  1.50000000
C   17.75000000  3.95951215  1.50000000
C   19.17000000  1.50000000  1.50000000
C   19.17000000  3.95951215  1.50000000
C   19.88000000  2.72975607  1.50000000
C   21.30000000  2.72975607  1.50000000
C   22.01000000  1.50000000  1.50000000
C   22.01000000  3.95951215  1.50000000
C   23.43000000  1.50000000  1.50000000
C   23.43000000  3.95951215  1.50000000
C   24.14000000  2.72975607  1.50000000
