   798
Lattice="89.46000000 0.00000000 0.00000000 0.00000000 25.13560932 0.00000000 0.00000000 0.00000000 3.00000000 " nsc="1 1 1" pbc="T F F" boundary_condition="PERIODIC PERIODIC  UNKNOWN UNKNOWN  UNKNOWN UNKNOWN"
C   0.00000000  2.72975607  1.50000000
C   0.00000000  5.18926822  1.50000000
C   0.00000000  7.64878037  1.50000000
C   0.00000000  10.10829251  1.50000000
C   0.00000000  12.56780466  1.50000000
C   0.00000000  15.02731681  1.50000000
C   0.00000000  17.48682895  1.50000000
C   0.00000000  19.94634110  1.50000000
C   0.00000000  22.40585325  1.50000000
C   0.71000000  1.50000000  1.50000000
C   0.71000000  3.95951215  1.50000000
C   0.71000000  6.41902429  1.50000000
C   0.71000000  8.87853644  1.50000000
C   0.71000000  11.33804859  1.50000000
C   0.71000000  13.79756073  1.50000000
C   0.71000000  16.25707288  1.50000000
C   0.71000000  18.71658503  1.50000000
C   0.71000000  21.17609717  1.50000000
C   0.71000000  23.63560932  1.50000000
C   2.13000000  1.50000000  1.50000000
C   2.13000000  3.95951215  1.50000000
C   2.13000000  6.41902429  1.50000000
C   2.13000000  8.87853644  1.50000000
C   2.13000000  11.33804859  1.50000000
C   2.13000000  13.79756073  1.50000000
C   2.13000000  16.25707288  1.50000000
C   2.13000000  18.71658503  1.50000000
C   2.13000000  21.17609717  1.50000000
C   2.13000000  23.63560932  1.50000000
C   2.84000000  2.72975607  1.50000000
C   2.84000000  5.18926822  1.50000000
C   2.84000000  7.64878037  1.50000000
C   2.84000000  10.10829251  1.50000000
C   2.84000000  12.56780466  1.50000000
C   2.84000000  15.02731681  1.50000000
C   2.84000000  17.48682895  1.50000000
C   2.84000000  19.94634110  1.50000000
C   2.84000000  22.40585325  1.50000000
C   4.26000000  2.72975607  1.50000000
C   4.26000000  5.18926822  1.50000000
C   4.26000000  7.64878037  1.50000000
C   4.26000000  10.10829251  1.50000000
C   4.26000000  12.56780466  1.50000000
C   4.26000000  15.02731681  1.50000000
C   4.26000000  17.48682895  1.50000000
C   4.26000000  19.94634110  1.50000000
C   4.26000000  22.40585325  1.50000000
C   4.97000000  1.50000000  1.50000000
C   4.97000000  3.95951215  1.50000000
C   4.97000000  6.41902429  1.50000000
C   4.97000000  8.87853644  1.50000000
C   4.97000000  11.33804859  1.50000000
C   4.97000000  13.79756073  1.50000000
C   4.97000000  16.25707288  1.50000000
C   4.97000000  18.71658503  1.50000000
C   4.97000000  21.17609717  1.50000000
C   4.97000000  23.63560932  1.50000000
C   6.39000000  1.50000000  1.50000000
C   6.39000000  3.95951215  1.50000000
C   6.39000000  6.41902429  1.50000000
C   6.39000000  8.87853644  1.50000000
C   6.39000000  11.33804859  1.50000000
C   6.39000000  13.79756073  1.50000000
C   6.39000000  16.25707288  1.50000000
C   6.39000000  18.71658503  1.50000000
C   6.39000000  21.17609717  1.50000000
C   6.39000000  23.63560932  1.50000000
C   7.10000000  2.72975607  1.50000000
C   7.10000000  5.18926822  1.50000000
C   7.10000000  7.64878037  1.50000000
C   7.10000000  10.10829251  1.50000000
C   7.10000000  12.56780466  1.50000000
C   7.10000000  15.02731681  1.50000000
C   7.10000000  17.48682895  1.50000000
C   7.10000000  19.94634110  1.50000000
C   7.10000000  22.40585325  1.50000000
C   8.52000000  2.72975607  1.50000000
C   8.52000000  5.18926822  1.50000000
C   8.52000000  7.64878037  1.50000000
C   8.52000000  10.10829251  1.50000000
C   8.52000000  12.56780466  1.50000000
C   8.52000000  15.02731681  1.50000000
C   8.52000000  17.48682895  1.50000000
C   8.52000000  19.94634110  1.50000000
C   8.52000000  22.40585325  1.50000000
C   9.23000000  1.50000000  1.50000000
C   9.23000000  3.95951215  1.50000000
C   9.23000000  6.41902429  1.50000000
C   9.23000000  8.87853644  1.50000000
C   9.23000000  11.33804859  1.50000000
C   9.23000000  13.79756073  1.50000000
C   9.23000000  16.25707288  1.50000000
C   9.23000000  18.71658503  1.50000000
C   9.23000000  21.17609717  1.50000000
C   9.23000000  23.63560932  1.50000000
C   10.65000000  1.50000000  1.50000000
C   10.65000000  3.95951215  1.50000000
C   10.65000000  6.41902429  1.50000000
C   10.65000000  8.87853644  1.50000000
C   10.65000000  11.33804859  1.50000000
C   10.65000000  13.79756073  1.50000000
C   10.65000000  16.25707288  1.50000000
C   10.65000000  18.71658503  1.50000000
C   10.65000000  21.17609717  1.50000000
C   10.65000000  23.63560932  1.50000000
C   11.36000000  2.72975607  1.50000000
C   11.36000000  5.18926822  1.50000000
C   11.36000000  7.64878037  1.50000000
C   11.36000000  10.10829251  1.50000000
C   11.36000000  12.56780466  1.50000000
C   11.36000000  15.02731681  1.50000000
C   11.36000000  17.48682895  1.50000000
C   11.36000000  19.94634110  1.50000000
C   11.36000000  22.40585325  1.50000000
C   12.78000000  2.72975607  1.50000000
C   12.78000000  5.18926822  1.50000000
C   12.78000000  7.64878037  1.50000000
C   12.78000000  10.10829251  1.50000000
C   12.78000000  12.56780466  1.50000000
C   12.78000000  15.02731681  1.50000000
C   12.78000000  17.48682895  1.50000000
C   12.78000000  19.94634110  1.50000000
C   12.78000000  22.40585325  1.50000000
C   13.49000000  1.50000000  1.50000000
C   13.49000000  3.95951215  1.50000000
C   13.49000000  6.41902429  1.50000000
C   13.49000000  8.87853644  1.50000000
C   13.49000000  11.33804859  1.50000000
C   13.49000000  13.79756073  1.50000000
C   13.49000000  16.25707288  1.50000000
C   13.49000000  18.71658503  1.50000000
C   13.49000000  21.17609717  1.50000000
C   13.49000000  23.63560932  1.50000000
C   14.91000000  1.50000000  1.50000000
C   14.91000000  3.95951215  1.50000000
C   14.91000000  6.41902429  1.50000000
C   14.91000000  8.87853644  1.50000000
C   14.91000000  11.33804859  1.50000000
C   14.91000000  13.79756073  1.50000000
C   14.91000000  16.25707288  1.50000000
C   14.91000000  18.71658503  1.50000000
C   14.91000000  21.17609717  1.50000000
C   14.91000000  23.63560932  1.50000000
C   15.62000000  2.72975607  1.50000000
C   15.62000000  5.18926822  1.50000000
C   15.62000000  7.64878037  1.50000000
C   15.62000000  10.10829251  1.50000000
C   15.62000000  12.56780466  1.50000000
C   15.62000000  15.02731681  1.50000000
C   15.62000000  17.48682895  1.50000000
C   15.62000000  19.94634110  1.50000000
C   15.62000000  22.40585325  1.50000000
C   17.04000000  2.72975607  1.50000000
C   17.04000000  5.18926822  1.50000000
C   17.04000000  7.64878037  1.50000000
C   17.04000000  10.10829251  1.50000000
C   17.04000000  12.56780466  1.50000000
C   17.04000000  15.02731681  1.50000000
C   17.04000000  17.48682895  1.50000000
C   17.04000000  19.94634110  1.50000000
C   17.04000000  22.40585325  1.50000000
C   17.75000000  1.50000000  1.50000000
C   17.75000000  3.95951215  1.50000000
C   17.75000000  6.41902429  1.50000000
C   17.75000000  8.87853644  1.50000000
C   17.75000000  11.33804859  1.50000000
C   17.75000000  13.79756073  1.50000000
C   17.75000000  16.25707288  1.50000000
C   17.75000000  18.71658503  1.50000000
C   17.75000000  21.17609717  1.50000000
C   17.75000000  23.63560932  1.50000000
C   19.17000000  1.50000000  1.50000000
C   19.17000000  3.95951215  1.50000000
C   19.17000000  6.41902429  1.50000000
C   19.17000000  8.87853644  1.50000000
C   19.17000000  11.33804859  1.50000000
C   19.17000000  13.79756073  1.50000000
C   19.17000000  16.25707288  1.50000000
C   19.17000000  18.71658503  1.50000000
C   19.17000000  21.17609717  1.50000000
C   19.17000000  23.63560932  1.50000000
C   19.88000000  2.72975607  1.50000000
C   19.88000000  5.18926822  1.50000000
C   19.88000000  7.64878037  1.50000000
C   19.88000000  10.10829251  1.50000000
C   19.88000000  12.56780466  1.50000000
C   19.88000000  15.02731681  1.50000000
C   19.88000000  17.48682895  1.50000000
C   19.88000000  19.94634110  1.50000000
C   19.88000000  22.40585325  1.50000000
C   21.30000000  2.72975607  1.50000000
C   21.30000000  5.18926822  1.50000000
C   21.30000000  7.64878037  1.50000000
C   21.30000000  10.10829251  1.50000000
C   21.30000000  12.56780466  1.50000000
C   21.30000000  15.02731681  1.50000000
C   21.30000000  17.48682895  1.50000000
C   21.30000000  19.94634110  1.50000000
C   21.30000000  22.40585325  1.50000000
C   22.01000000  1.50000000  1.50000000
C   22.01000000  3.95951215  1.50000000
C   22.01000000  6.41902429  1.50000000
C   22.01000000  8.87853644  1.50000000
C   22.01000000  11.33804859  1.50000000
C   22.01000000  13.79756073  1.50000000
C   22.01000000  16.25707288  1.50000000
C   22.01000000  18.71658503  1.50000000
C   22.01000000  21.17609717  1.50000000
C   22.01000000  23.63560932  1.50000000
C   23.43000000  1.50000000  1.50000000
C   23.43000000  3.95951215  1.50000000
C   23.43000000  6.41902429  1.50000000
C   23.43000000  8.87853644  1.50000000
C   23.43000000  11.33804859  1.50000000
C   23.43000000  13.79756073  1.50000000
C   23.43000000  16.25707288  1.50000000
C   23.43000000  18.71658503  1.50000000
C   23.43000000  21.17609717  1.50000000
C   23.43000000  23.63560932  1.50000000
C   24.14000000  2.72975607  1.50000000
C   24.14000000  5.18926822  1.50000000
C   24.14000000  7.64878037  1.50000000
C   24.14000000  10.10829251  1.50000000
C   24.14000000  12.56780466  1.50000000
C   24.14000000  15.02731681  1.50000000
C   24.14000000  17.48682895  1.50000000
C   24.14000000  19.94634110  1.50000000
C   24.14000000  22.40585325  1.50000000
C   25.56000000  2.72975607  1.50000000
C   25.56000000  5.18926822  1.50000000
C   25.56000000  7.64878037  1.50000000
C   25.56000000  10.10829251  1.50000000
C   25.56000000  12.56780466  1.50000000
C   25.56000000  15.02731681  1.50000000
C   25.56000000  17.48682895  1.50000000
C   25.56000000  19.94634110  1.50000000
C   25.56000000  22.40585325  1.50000000
C   26.27000000  1.50000000  1.50000000
C   26.27000000  3.95951215  1.50000000
C   26.27000000  6.41902429  1.50000000
C   26.27000000  8.87853644  1.50000000
C   26.27000000  11.33804859  1.50000000
C   26.27000000  13.79756073  1.50000000
C   26.27000000  16.25707288  1.50000000
C   26.27000000  18.71658503  1.50000000
C   26.27000000  21.17609717  1.50000000
C   26.27000000  23.63560932  1.50000000
C   27.69000000  1.50000000  1.50000000
C   27.69000000  3.95951215  1.50000000
C   27.69000000  6.41902429  1.50000000
C   27.69000000  8.87853644  1.50000000
C   27.69000000  11.33804859  1.50000000
C   27.69000000  13.79756073  1.50000000
C   27.69000000  16.25707288  1.50000000
C   27.69000000  18.71658503  1.50000000
C   27.69000000  21.17609717  1.50000000
C   27.69000000  23.63560932  1.50000000
C   28.40000000  2.72975607  1.50000000
C   28.40000000  5.18926822  1.50000000
C   28.40000000  7.64878037  1.50000000
C   28.40000000  10.10829251  1.50000000
C   28.40000000  12.56780466  1.50000000
C   28.40000000  15.02731681  1.50000000
C   28.40000000  17.48682895  1.50000000
C   28.40000000  19.94634110  1.50000000
C   28.40000000  22.40585325  1.50000000
C   29.82000000  2.72975607  1.50000000
C   29.82000000  5.18926822  1.50000000
C   29.82000000  7.64878037  1.50000000
C   29.82000000  10.10829251  1.50000000
C   29.82000000  12.56780466  1.50000000
C   29.82000000  15.02731681  1.50000000
C   29.82000000  17.48682895  1.50000000
C   29.82000000  19.94634110  1.50000000
C   29.82000000  22.40585325  1.50000000
C   30.53000000  1.50000000  1.50000000
C   30.53000000  3.95951215  1.50000000
C   30.53000000  6.41902429  1.50000000
C   30.53000000  8.87853644  1.50000000
C   30.53000000  11.33804859  1.50000000
C   30.53000000  13.79756073  1.50000000
C   30.53000000  16.25707288  1.50000000
C   30.53000000  18.71658503  1.50000000
C   30.53000000  21.17609717  1.50000000
C   30.53000000  23.63560932  1.50000000
C   31.95000000  1.50000000  1.50000000
C   31.95000000  3.95951215  1.50000000
C   31.95000000  6.41902429  1.50000000
C   31.95000000  8.87853644  1.50000000
C   31.95000000  11.33804859  1.50000000
C   31.95000000  13.79756073  1.50000000
C   31.95000000  16.25707288  1.50000000
C   31.95000000  18.71658503  1.50000000
C   31.95000000  21.17609717  1.50000000
C   31.95000000  23.63560932  1.50000000
C   32.66000000  2.72975607  1.50000000
C   32.66000000  5.18926822  1.50000000
C   32.66000000  7.64878037  1.50000000
C   32.66000000  10.10829251  1.50000000
C   32.66000000  12.56780466  1.50000000
C   32.66000000  15.02731681  1.50000000
C   32.66000000  17.48682895  1.50000000
C   32.66000000  19.94634110  1.50000000
C   32.66000000  22.40585325  1.50000000
C   34.08000000  2.72975607  1.50000000
C   34.08000000  5.18926822  1.50000000
C   34.08000000  7.64878037  1.50000000
C   34.08000000  10.10829251  1.50000000
C   34.08000000  12.56780466  1.50000000
C   34.08000000  15.02731681  1.50000000
C   34.08000000  17.48682895  1.50000000
C   34.08000000  19.94634110  1.50000000
C   34.08000000  22.40585325  1.50000000
C   34.79000000  1.50000000  1.50000000
C   34.79000000  3.95951215  1.50000000
C   34.79000000  6.41902429  1.50000000
C   34.79000000  8.87853644  1.50000000
C   34.79000000  11.33804859  1.50000000
C   34.79000000  13.79756073  1.50000000
C   34.79000000  16.25707288  1.50000000
C   34.79000000  18.71658503  1.50000000
C   34.79000000  21.17609717  1.50000000
C   34.79000000  23.63560932  1.50000000
C   36.21000000  1.50000000  1.50000000
C   36.21000000  3.95951215  1.50000000
C   36.21000000  6.41902429  1.50000000
C   36.21000000  8.87853644  1.50000000
C   36.21000000  11.33804859  1.50000000
C   36.21000000  13.79756073  1.50000000
C   36.21000000  16.25707288  1.50000000
C   36.21000000  18.71658503  1.50000000
C   36.21000000  21.17609717  1.50000000
C   36.21000000  23.63560932  1.50000000
C   36.92000000  2.72975607  1.50000000
C   36.92000000  5.18926822  1.50000000
C   36.92000000  7.64878037  1.50000000
C   36.92000000  10.10829251  1.50000000
C   36.92000000  12.56780466  1.50000000
C   36.92000000  15.02731681  1.50000000
C   36.92000000  17.48682895  1.50000000
C   36.92000000  19.94634110  1.50000000
C   36.92000000  22.40585325  1.50000000
C   38.34000000  2.72975607  1.50000000
C   38.34000000  5.18926822  1.50000000
C   38.34000000  7.64878037  1.50000000
C   38.34000000  10.10829251  1.50000000
C   38.34000000  12.56780466  1.50000000
C   38.34000000  15.02731681  1.50000000
C   38.34000000  17.48682895  1.50000000
C   38.34000000  19.94634110  1.50000000
C   38.34000000  22.40585325  1.50000000
C   39.05000000  1.50000000  1.50000000
C   39.05000000  3.95951215  1.50000000
C   39.05000000  6.41902429  1.50000000
C   39.05000000  8.87853644  1.50000000
C   39.05000000  11.33804859  1.50000000
C   39.05000000  13.79756073  1.50000000
C   39.05000000  16.25707288  1.50000000
C   39.05000000  18.71658503  1.50000000
C   39.05000000  21.17609717  1.50000000
C   39.05000000  23.63560932  1.50000000
C   40.47000000  1.50000000  1.50000000
C   40.47000000  3.95951215  1.50000000
C   40.47000000  6.41902429  1.50000000
C   40.47000000  8.87853644  1.50000000
C   40.47000000  11.33804859  1.50000000
C   40.47000000  13.79756073  1.50000000
C   40.47000000  16.25707288  1.50000000
C   40.47000000  18.71658503  1.50000000
C   40.47000000  21.17609717  1.50000000
C   40.47000000  23.63560932  1.50000000
C   41.18000000  2.72975607  1.50000000
C   41.18000000  5.18926822  1.50000000
C   41.18000000  7.64878037  1.50000000
C   41.18000000  10.10829251  1.50000000
C   41.18000000  12.56780466  1.50000000
C   41.18000000  15.02731681  1.50000000
C   41.18000000  17.48682895  1.50000000
C   41.18000000  19.94634110  1.50000000
C   41.18000000  22.40585325  1.50000000
C   42.60000000  2.72975607  1.50000000
C   42.60000000  5.18926822  1.50000000
C   42.60000000  7.64878037  1.50000000
C   42.60000000  10.10829251  1.50000000
C   42.60000000  12.56780466  1.50000000
C   42.60000000  15.02731681  1.50000000
C   42.60000000  17.48682895  1.50000000
C   42.60000000  19.94634110  1.50000000
C   42.60000000  22.40585325  1.50000000
C   43.31000000  1.50000000  1.50000000
C   43.31000000  3.95951215  1.50000000
C   43.31000000  6.41902429  1.50000000
C   43.31000000  8.87853644  1.50000000
C   43.31000000  11.33804859  1.50000000
C   43.31000000  13.79756073  1.50000000
C   43.31000000  16.25707288  1.50000000
C   43.31000000  18.71658503  1.50000000
C   43.31000000  21.17609717  1.50000000
C   43.31000000  23.63560932  1.50000000
C   44.73000000  1.50000000  1.50000000
C   44.73000000  3.95951215  1.50000000
C   44.73000000  6.41902429  1.50000000
C   44.73000000  8.87853644  1.50000000
C   44.73000000  11.33804859  1.50000000
C   44.73000000  13.79756073  1.50000000
C   44.73000000  16.25707288  1.50000000
C   44.73000000  18.71658503  1.50000000
C   44.73000000  21.17609717  1.50000000
C   44.73000000  23.63560932  1.50000000
C   45.44000000  2.72975607  1.50000000
C   45.44000000  5.18926822  1.50000000
C   45.44000000  7.64878037  1.50000000
C   45.44000000  10.10829251  1.50000000
C   45.44000000  12.56780466  1.50000000
C   45.44000000  15.02731681  1.50000000
C   45.44000000  17.48682895  1.50000000
C   45.44000000  19.94634110  1.50000000
C   45.44000000  22.40585325  1.50000000
C   46.86000000  2.72975607  1.50000000
C   46.86000000  5.18926822  1.50000000
C   46.86000000  7.64878037  1.50000000
C   46.86000000  10.10829251  1.50000000
C   46.86000000  12.56780466  1.50000000
C   46.86000000  15.02731681  1.50000000
C   46.86000000  17.48682895  1.50000000
C   46.86000000  19.94634110  1.50000000
C   46.86000000  22.40585325  1.50000000
C   47.57000000  1.50000000  1.50000000
C   47.57000000  3.95951215  1.50000000
C   47.57000000  6.41902429  1.50000000
C   47.57000000  8.87853644  1.50000000
C   47.57000000  11.33804859  1.50000000
C   47.57000000  13.79756073  1.50000000
C   47.57000000  16.25707288  1.50000000
C   47.57000000  18.71658503  1.50000000
C   47.57000000  21.17609717  1.50000000
C   47.57000000  23.63560932  1.50000000
C   48.99000000  1.50000000  1.50000000
C   48.99000000  3.95951215  1.50000000
C   48.99000000  6.41902429  1.50000000
C   48.99000000  8.87853644  1.50000000
C   48.99000000  11.33804859  1.50000000
C   48.99000000  13.79756073  1.50000000
C   48.99000000  16.25707288  1.50000000
C   48.99000000  18.71658503  1.50000000
C   48.99000000  21.17609717  1.50000000
C   48.99000000  23.63560932  1.50000000
C   49.70000000  2.72975607  1.50000000
C   49.70000000  5.18926822  1.50000000
C   49.70000000  7.64878037  1.50000000
C   49.70000000  10.10829251  1.50000000
C   49.70000000  12.56780466  1.50000000
C   49.70000000  15.02731681  1.50000000
C   49.70000000  17.48682895  1.50000000
C   49.70000000  19.94634110  1.50000000
C   49.70000000  22.40585325  1.50000000
C   51.12000000  2.72975607  1.50000000
C   51.12000000  5.18926822  1.50000000
C   51.12000000  7.64878037  1.50000000
C   51.12000000  10.10829251  1.50000000
C   51.12000000  12.56780466  1.50000000
C   51.12000000  15.02731681  1.50000000
C   51.12000000  17.48682895  1.50000000
C   51.12000000  19.94634110  1.50000000
C   51.12000000  22.40585325  1.50000000
C   51.83000000  1.50000000  1.50000000
C   51.83000000  3.95951215  1.50000000
C   51.83000000  6.41902429  1.50000000
C   51.83000000  8.87853644  1.50000000
C   51.83000000  11.33804859  1.50000000
C   51.83000000  13.79756073  1.50000000
C   51.83000000  16.25707288  1.50000000
C   51.83000000  18.71658503  1.50000000
C   51.83000000  21.17609717  1.50000000
C   51.83000000  23.63560932  1.50000000
C   53.25000000  1.50000000  1.50000000
C   53.25000000  3.95951215  1.50000000
C   53.25000000  6.41902429  1.50000000
C   53.25000000  8.87853644  1.50000000
C   53.25000000  11.33804859  1.50000000
C   53.25000000  13.79756073  1.50000000
C   53.25000000  16.25707288  1.50000000
C   53.25000000  18.71658503  1.50000000
C   53.25000000  21.17609717  1.50000000
C   53.25000000  23.63560932  1.50000000
C   53.96000000  2.72975607  1.50000000
C   53.96000000  5.18926822  1.50000000
C   53.96000000  7.64878037  1.50000000
C   53.96000000  10.10829251  1.50000000
C   53.96000000  12.56780466  1.50000000
C   53.96000000  15.02731681  1.50000000
C   53.96000000  17.48682895  1.50000000
C   53.96000000  19.94634110  1.50000000
C   53.96000000  22.40585325  1.50000000
C   55.38000000  2.72975607  1.50000000
C   55.38000000  5.18926822  1.50000000
C   55.38000000  7.64878037  1.50000000
C   55.38000000  10.10829251  1.50000000
C   55.38000000  12.56780466  1.50000000
C   55.38000000  15.02731681  1.50000000
C   55.38000000  17.48682895  1.50000000
C   55.38000000  19.94634110  1.50000000
C   55.38000000  22.40585325  1.50000000
C   56.09000000  1.50000000  1.50000000
C   56.09000000  3.95951215  1.50000000
C   56.09000000  6.41902429  1.50000000
C   56.09000000  8.87853644  1.50000000
C   56.09000000  11.33804859  1.50000000
C   56.09000000  13.79756073  1.50000000
C   56.09000000  16.25707288  1.50000000
C   56.09000000  18.71658503  1.50000000
C   56.09000000  21.17609717  1.50000000
C   56.09000000  23.63560932  1.50000000
C   57.51000000  1.50000000  1.50000000
C   57.51000000  3.95951215  1.50000000
C   57.51000000  6.41902429  1.50000000
C   57.51000000  8.87853644  1.50000000
C   57.51000000  11.33804859  1.50000000
C   57.51000000  13.79756073  1.50000000
C   57.51000000  16.25707288  1.50000000
C   57.51000000  18.71658503  1.50000000
C   57.51000000  21.17609717  1.50000000
C   57.51000000  23.63560932  1.50000000
C   58.22000000  2.72975607  1.50000000
C   58.22000000  5.18926822  1.50000000
C   58.22000000  7.64878037  1.50000000
C   58.22000000  10.10829251  1.50000000
C   58.22000000  12.56780466  1.50000000
C   58.22000000  15.02731681  1.50000000
C   58.22000000  17.48682895  1.50000000
C   58.22000000  19.94634110  1.50000000
C   58.22000000  22.40585325  1.50000000
C   59.64000000  2.72975607  1.50000000
C   59.64000000  5.18926822  1.50000000
C   59.64000000  7.64878037  1.50000000
C   59.64000000  10.10829251  1.50000000
C   59.64000000  12.56780466  1.50000000
C   59.64000000  15.02731681  1.50000000
C   59.64000000  17.48682895  1.50000000
C   59.64000000  19.94634110  1.50000000
C   59.64000000  22.40585325  1.50000000
C   60.35000000  1.50000000  1.50000000
C   60.35000000  3.95951215  1.50000000
C   60.35000000  6.41902429  1.50000000
C   60.35000000  8.87853644  1.50000000
C   60.35000000  11.33804859  1.50000000
C   60.35000000  13.79756073  1.50000000
C   60.35000000  16.25707288  1.50000000
C   60.35000000  18.71658503  1.50000000
C   60.35000000  21.17609717  1.50000000
C   60.35000000  23.63560932  1.50000000
C   61.77000000  1.50000000  1.50000000
C   61.77000000  3.95951215  1.50000000
C   61.77000000  6.41902429  1.50000000
C   61.77000000  8.87853644  1.50000000
C   61.77000000  11.33804859  1.50000000
C   61.77000000  13.79756073  1.50000000
C   61.77000000  16.25707288  1.50000000
C   61.77000000  18.71658503  1.50000000
C   61.77000000  21.17609717  1.50000000
C   61.77000000  23.63560932  1.50000000
C   62.48000000  2.72975607  1.50000000
C   62.48000000  5.18926822  1.50000000
C   62.48000000  7.64878037  1.50000000
C   62.48000000  10.10829251  1.50000000
C   62.48000000  12.56780466  1.50000000
C   62.48000000  15.02731681  1.50000000
C   62.48000000  17.48682895  1.50000000
C   62.48000000  19.94634110  1.50000000
C   62.48000000  22.40585325  1.50000000
C   63.90000000  2.72975607  1.50000000
C   63.90000000  5.18926822  1.50000000
C   63.90000000  7.64878037  1.50000000
C   63.90000000  10.10829251  1.50000000
C   63.90000000  12.56780466  1.50000000
C   63.90000000  15.02731681  1.50000000
C   63.90000000  17.48682895  1.50000000
C   63.90000000  19.94634110  1.50000000
C   63.90000000  22.40585325  1.50000000
C   64.61000000  1.50000000  1.50000000
C   64.61000000  3.95951215  1.50000000
C   64.61000000  6.41902429  1.50000000
C   64.61000000  8.87853644  1.50000000
C   64.61000000  11.33804859  1.50000000
C   64.61000000  13.79756073  1.50000000
C   64.61000000  16.25707288  1.50000000
C   64.61000000  18.71658503  1.50000000
C   64.61000000  21.17609717  1.50000000
C   64.61000000  23.63560932  1.50000000
C   66.03000000  1.50000000  1.50000000
C   66.03000000  3.95951215  1.50000000
C   66.03000000  6.41902429  1.50000000
C   66.03000000  8.87853644  1.50000000
C   66.03000000  11.33804859  1.50000000
C   66.03000000  13.79756073  1.50000000
C   66.03000000  16.25707288  1.50000000
C   66.03000000  18.71658503  1.50000000
C   66.03000000  21.17609717  1.50000000
C   66.03000000  23.63560932  1.50000000
C   66.74000000  2.72975607  1.50000000
C   66.74000000  5.18926822  1.50000000
C   66.74000000  7.64878037  1.50000000
C   66.74000000  10.10829251  1.50000000
C   66.74000000  12.56780466  1.50000000
C   66.74000000  15.02731681  1.50000000
C   66.74000000  17.48682895  1.50000000
C   66.74000000  19.94634110  1.50000000
C   66.74000000  22.40585325  1.50000000
C   68.16000000  2.72975607  1.50000000
C   68.16000000  5.18926822  1.50000000
C   68.16000000  7.64878037  1.50000000
C   68.16000000  10.10829251  1.50000000
C   68.16000000  12.56780466  1.50000000
C   68.16000000  15.02731681  1.50000000
C   68.16000000  17.48682895  1.50000000
C   68.16000000  19.94634110  1.50000000
C   68.16000000  22.40585325  1.50000000
C   68.87000000  1.50000000  1.50000000
C   68.87000000  3.95951215  1.50000000
C   68.87000000  6.41902429  1.50000000
C   68.87000000  8.87853644  1.50000000
C   68.87000000  11.33804859  1.50000000
C   68.87000000  13.79756073  1.50000000
C   68.87000000  16.25707288  1.50000000
C   68.87000000  18.71658503  1.50000000
C   68.87000000  21.17609717  1.50000000
C   68.87000000  23.63560932  1.50000000
C   70.29000000  1.50000000  1.50000000
C   70.29000000  3.95951215  1.50000000
C   70.29000000  6.41902429  1.50000000
C   70.29000000  8.87853644  1.50000000
C   70.29000000  11.33804859  1.50000000
C   70.29000000  13.79756073  1.50000000
C   70.29000000  16.25707288  1.50000000
C   70.29000000  18.71658503  1.50000000
C   70.29000000  21.17609717  1.50000000
C   70.29000000  23.63560932  1.50000000
C   71.00000000  2.72975607  1.50000000
C   71.00000000  5.18926822  1.50000000
C   71.00000000  7.64878037  1.50000000
C   71.00000000  10.10829251  1.50000000
C   71.00000000  12.56780466  1.50000000
C   71.00000000  15.02731681  1.50000000
C   71.00000000  17.48682895  1.50000000
C   71.00000000  19.94634110  1.50000000
C   71.00000000  22.40585325  1.50000000
C   72.42000000  2.72975607  1.50000000
C   72.42000000  5.18926822  1.50000000
C   72.42000000  7.64878037  1.50000000
C   72.42000000  10.10829251  1.50000000
C   72.42000000  12.56780466  1.50000000
C   72.42000000  15.02731681  1.50000000
C   72.42000000  17.48682895  1.50000000
C   72.42000000  19.94634110  1.50000000
C   72.42000000  22.40585325  1.50000000
C   73.13000000  1.50000000  1.50000000
C   73.13000000  3.95951215  1.50000000
C   73.13000000  6.41902429  1.50000000
C   73.13000000  8.87853644  1.50000000
C   73.13000000  11.33804859  1.50000000
C   73.13000000  13.79756073  1.50000000
C   73.13000000  16.25707288  1.50000000
C   73.13000000  18.71658503  1.50000000
C   73.13000000  21.17609717  1.50000000
C   73.13000000  23.63560932  1.50000000
C   74.55000000  1.50000000  1.50000000
C   74.55000000  3.95951215  1.50000000
C   74.55000000  6.41902429  1.50000000
C   74.55000000  8.87853644  1.50000000
C   74.55000000  11.33804859  1.50000000
C   74.55000000  13.79756073  1.50000000
C   74.55000000  16.25707288  1.50000000
C   74.55000000  18.71658503  1.50000000
C   74.55000000  21.17609717  1.50000000
C   74.55000000  23.63560932  1.50000000
C   75.26000000  2.72975607  1.50000000
C   75.26000000  5.18926822  1.50000000
C   75.26000000  7.64878037  1.50000000
C   75.26000000  10.10829251  1.50000000
C   75.26000000  12.56780466  1.50000000
C   75.26000000  15.02731681  1.50000000
C   75.26000000  17.48682895  1.50000000
C   75.26000000  19.94634110  1.50000000
C   75.26000000  22.40585325  1.50000000
C   76.68000000  2.72975607  1.50000000
C   76.68000000  5.18926822  1.50000000
C   76.68000000  7.64878037  1.50000000
C   76.68000000  10.10829251  1.50000000
C   76.68000000  12.56780466  1.50000000
C   76.68000000  15.02731681  1.50000000
C   76.68000000  17.48682895  1.50000000
C   76.68000000  19.94634110  1.50000000
C   76.68000000  22.40585325  1.50000000
C   77.39000000  1.50000000  1.50000000
C   77.39000000  3.95951215  1.50000000
C   77.39000000  6.41902429  1.50000000
C   77.39000000  8.87853644  1.50000000
C   77.39000000  11.33804859  1.50000000
C   77.39000000  13.79756073  1.50000000
C   77.39000000  16.25707288  1.50000000
C   77.39000000  18.71658503  1.50000000
C   77.39000000  21.17609717  1.50000000
C   77.39000000  23.63560932  1.50000000
C   78.81000000  1.50000000  1.50000000
C   78.81000000  3.95951215  1.50000000
C   78.81000000  6.41902429  1.50000000
C   78.81000000  8.87853644  1.50000000
C   78.81000000  11.33804859  1.50000000
C   78.81000000  13.79756073  1.50000000
C   78.81000000  16.25707288  1.50000000
C   78.81000000  18.71658503  1.50000000
C   78.81000000  21.17609717  1.50000000
C   78.81000000  23.63560932  1.50000000
C   79.52000000  2.72975607  1.50000000
C   79.52000000  5.18926822  1.50000000
C   79.52000000  7.64878037  1.50000000
C   79.52000000  10.10829251  1.50000000
C   79.52000000  12.56780466  1.50000000
C   79.52000000  15.02731681  1.50000000
C   79.52000000  17.48682895  1.50000000
C   79.52000000  19.94634110  1.50000000
C   79.52000000  22.40585325  1.50000000
C   80.94000000  2.72975607  1.50000000
C   80.94000000  5.18926822  1.50000000
C   80.94000000  7.64878037  1.50000000
C   80.94000000  10.10829251  1.50000000
C   80.94000000  12.56780466  1.50000000
C   80.94000000  15.02731681  1.50000000
C   80.94000000  17.48682895  1.50000000
C   80.94000000  19.94634110  1.50000000
C   80.94000000  22.40585325  1.50000000
C   81.65000000  1.50000000  1.50000000
C   81.65000000  3.95951215  1.50000000
C   81.65000000  6.41902429  1.50000000
C   81.65000000  8.87853644  1.50000000
C   81.65000000  11.33804859  1.50000000
C   81.65000000  13.79756073  1.50000000
C   81.65000000  16.25707288  1.50000000
C   81.65000000  18.71658503  1.50000000
C   81.65000000  21.17609717  1.50000000
C   81.65000000  23.63560932  1.50000000
C   83.07000000  1.50000000  1.50000000
C   83.07000000  3.95951215  1.50000000
C   83.07000000  6.41902429  1.50000000
C   83.07000000  8.87853644  1.50000000
C   83.07000000  11.33804859  1.50000000
C   83.07000000  13.79756073  1.50000000
C   83.07000000  16.25707288  1.50000000
C   83.07000000  18.71658503  1.50000000
C   83.07000000  21.17609717  1.50000000
C   83.07000000  23.63560932  1.50000000
C   83.78000000  2.72975607  1.50000000
C   83.78000000  5.18926822  1.50000000
C   83.78000000  7.64878037  1.50000000
C   83.78000000  10.10829251  1.50000000
C   83.78000000  12.56780466  1.50000000
C   83.78000000  15.02731681  1.50000000
C   83.78000000  17.48682895  1.50000000
C   83.78000000  19.94634110  1.50000000
C   83.78000000  22.40585325  1.50000000
C   85.20000000  2.72975607  1.50000000
C   85.20000000  5.18926822  1.50000000
C   85.20000000  7.64878037  1.50000000
C   85.20000000  10.10829251  1.50000000
C   85.20000000  12.56780466  1.50000000
C   85.20000000  15.02731681  1.50000000
C   85.20000000  17.48682895  1.50000000
C   85.20000000  19.94634110  1.50000000
C   85.20000000  22.40585325  1.50000000
C   85.91000000  1.50000000  1.50000000
C   85.91000000  3.95951215  1.50000000
C   85.91000000  6.41902429  1.50000000
C   85.91000000  8.87853644  1.50000000
C   85.91000000  11.33804859  1.50000000
C   85.91000000  13.79756073  1.50000000
C   85.91000000  16.25707288  1.50000000
C   85.91000000  18.71658503  1.50000000
C   85.91000000  21.17609717  1.50000000
C   85.91000000  23.63560932  1.50000000
C   87.33000000  1.50000000  1.50000000
C   87.33000000  3.95951215  1.50000000
C   87.33000000  6.41902429  1.50000000
C   87.33000000  8.87853644  1.50000000
C   87.33000000  11.33804859  1.50000000
C   87.33000000  13.79756073  1.50000000
C   87.33000000  16.25707288  1.50000000
C   87.33000000  18.71658503  1.50000000
C   87.33000000  21.17609717  1.50000000
C   87.33000000  23.63560932  1.50000000
C   88.04000000  2.72975607  1.50000000
C   88.04000000  5.18926822  1.50000000
C   88.04000000  7.64878037  1.50000000
C   88.04000000  10.10829251  1.50000000
C   88.04000000  12.56780466  1.50000000
C   88.04000000  15.02731681  1.50000000
C   88.04000000  17.48682895  1.50000000
C   88.04000000  19.94634110  1.50000000
C   88.04000000  22.40585325  1.50000000
