   14364
Lattice="1456.92000000 0.00000000 0.00000000 0.00000000 27.59512147 0.00000000 0.00000000 0.00000000 3.00000000 " nsc="1 1 1" pbc="T F F" boundary_condition="PERIODIC PERIODIC  UNKNOWN UNKNOWN  UNKNOWN UNKNOWN"
C   0.00000000  2.72975607  1.50000000
C   0.00000000  5.18926822  1.50000000
C   0.00000000  7.64878037  1.50000000
C   0.00000000  10.10829251  1.50000000
C   0.00000000  12.56780466  1.50000000
C   0.00000000  15.02731681  1.50000000
C   0.00000000  17.48682895  1.50000000
C   0.00000000  19.94634110  1.50000000
C   0.00000000  22.40585325  1.50000000
C   0.00000000  24.86536539  1.50000000
C   0.71000000  1.50000000  1.50000000
C   0.71000000  3.95951215  1.50000000
C   0.71000000  6.41902429  1.50000000
C   0.71000000  8.87853644  1.50000000
C   0.71000000  11.33804859  1.50000000
C   0.71000000  13.79756073  1.50000000
C   0.71000000  16.25707288  1.50000000
C   0.71000000  18.71658503  1.50000000
C   0.71000000  21.17609717  1.50000000
C   0.71000000  23.63560932  1.50000000
C   0.71000000  26.09512147  1.50000000
C   2.13000000  1.50000000  1.50000000
C   2.13000000  3.95951215  1.50000000
C   2.13000000  6.41902429  1.50000000
C   2.13000000  8.87853644  1.50000000
C   2.13000000  11.33804859  1.50000000
C   2.13000000  13.79756073  1.50000000
C   2.13000000  16.25707288  1.50000000
C   2.13000000  18.71658503  1.50000000
C   2.13000000  21.17609717  1.50000000
C   2.13000000  23.63560932  1.50000000
C   2.13000000  26.09512147  1.50000000
C   2.84000000  2.72975607  1.50000000
C   2.84000000  5.18926822  1.50000000
C   2.84000000  7.64878037  1.50000000
C   2.84000000  10.10829251  1.50000000
C   2.84000000  12.56780466  1.50000000
C   2.84000000  15.02731681  1.50000000
C   2.84000000  17.48682895  1.50000000
C   2.84000000  19.94634110  1.50000000
C   2.84000000  22.40585325  1.50000000
C   2.84000000  24.86536539  1.50000000
C   4.26000000  2.72975607  1.50000000
C   4.26000000  5.18926822  1.50000000
C   4.26000000  7.64878037  1.50000000
C   4.26000000  10.10829251  1.50000000
C   4.26000000  12.56780466  1.50000000
C   4.26000000  15.02731681  1.50000000
C   4.26000000  17.48682895  1.50000000
C   4.26000000  19.94634110  1.50000000
C   4.26000000  22.40585325  1.50000000
C   4.26000000  24.86536539  1.50000000
C   4.97000000  1.50000000  1.50000000
C   4.97000000  3.95951215  1.50000000
C   4.97000000  6.41902429  1.50000000
C   4.97000000  8.87853644  1.50000000
C   4.97000000  11.33804859  1.50000000
C   4.97000000  13.79756073  1.50000000
C   4.97000000  16.25707288  1.50000000
C   4.97000000  18.71658503  1.50000000
C   4.97000000  21.17609717  1.50000000
C   4.97000000  23.63560932  1.50000000
C   4.97000000  26.09512147  1.50000000
C   6.39000000  1.50000000  1.50000000
C   6.39000000  3.95951215  1.50000000
C   6.39000000  6.41902429  1.50000000
C   6.39000000  8.87853644  1.50000000
C   6.39000000  11.33804859  1.50000000
C   6.39000000  13.79756073  1.50000000
C   6.39000000  16.25707288  1.50000000
C   6.39000000  18.71658503  1.50000000
C   6.39000000  21.17609717  1.50000000
C   6.39000000  23.63560932  1.50000000
C   6.39000000  26.09512147  1.50000000
C   7.10000000  2.72975607  1.50000000
C   7.10000000  5.18926822  1.50000000
C   7.10000000  7.64878037  1.50000000
C   7.10000000  10.10829251  1.50000000
C   7.10000000  12.56780466  1.50000000
C   7.10000000  15.02731681  1.50000000
C   7.10000000  17.48682895  1.50000000
C   7.10000000  19.94634110  1.50000000
C   7.10000000  22.40585325  1.50000000
C   7.10000000  24.86536539  1.50000000
C   8.52000000  2.72975607  1.50000000
C   8.52000000  5.18926822  1.50000000
C   8.52000000  7.64878037  1.50000000
C   8.52000000  10.10829251  1.50000000
C   8.52000000  12.56780466  1.50000000
C   8.52000000  15.02731681  1.50000000
C   8.52000000  17.48682895  1.50000000
C   8.52000000  19.94634110  1.50000000
C   8.52000000  22.40585325  1.50000000
C   8.52000000  24.86536539  1.50000000
C   9.23000000  1.50000000  1.50000000
C   9.23000000  3.95951215  1.50000000
C   9.23000000  6.41902429  1.50000000
C   9.23000000  8.87853644  1.50000000
C   9.23000000  11.33804859  1.50000000
C   9.23000000  13.79756073  1.50000000
C   9.23000000  16.25707288  1.50000000
C   9.23000000  18.71658503  1.50000000
C   9.23000000  21.17609717  1.50000000
C   9.23000000  23.63560932  1.50000000
C   9.23000000  26.09512147  1.50000000
C   10.65000000  1.50000000  1.50000000
C   10.65000000  3.95951215  1.50000000
C   10.65000000  6.41902429  1.50000000
C   10.65000000  8.87853644  1.50000000
C   10.65000000  11.33804859  1.50000000
C   10.65000000  13.79756073  1.50000000
C   10.65000000  16.25707288  1.50000000
C   10.65000000  18.71658503  1.50000000
C   10.65000000  21.17609717  1.50000000
C   10.65000000  23.63560932  1.50000000
C   10.65000000  26.09512147  1.50000000
C   11.36000000  2.72975607  1.50000000
C   11.36000000  5.18926822  1.50000000
C   11.36000000  7.64878037  1.50000000
C   11.36000000  10.10829251  1.50000000
C   11.36000000  12.56780466  1.50000000
C   11.36000000  15.02731681  1.50000000
C   11.36000000  17.48682895  1.50000000
C   11.36000000  19.94634110  1.50000000
C   11.36000000  22.40585325  1.50000000
C   11.36000000  24.86536539  1.50000000
C   12.78000000  2.72975607  1.50000000
C   12.78000000  5.18926822  1.50000000
C   12.78000000  7.64878037  1.50000000
C   12.78000000  10.10829251  1.50000000
C   12.78000000  12.56780466  1.50000000
C   12.78000000  15.02731681  1.50000000
C   12.78000000  17.48682895  1.50000000
C   12.78000000  19.94634110  1.50000000
C   12.78000000  22.40585325  1.50000000
C   12.78000000  24.86536539  1.50000000
C   13.49000000  1.50000000  1.50000000
C   13.49000000  3.95951215  1.50000000
C   13.49000000  6.41902429  1.50000000
C   13.49000000  8.87853644  1.50000000
C   13.49000000  11.33804859  1.50000000
C   13.49000000  13.79756073  1.50000000
C   13.49000000  16.25707288  1.50000000
C   13.49000000  18.71658503  1.50000000
C   13.49000000  21.17609717  1.50000000
C   13.49000000  23.63560932  1.50000000
C   13.49000000  26.09512147  1.50000000
C   14.91000000  1.50000000  1.50000000
C   14.91000000  3.95951215  1.50000000
C   14.91000000  6.41902429  1.50000000
C   14.91000000  8.87853644  1.50000000
C   14.91000000  11.33804859  1.50000000
C   14.91000000  13.79756073  1.50000000
C   14.91000000  16.25707288  1.50000000
C   14.91000000  18.71658503  1.50000000
C   14.91000000  21.17609717  1.50000000
C   14.91000000  23.63560932  1.50000000
C   14.91000000  26.09512147  1.50000000
C   15.62000000  2.72975607  1.50000000
C   15.62000000  5.18926822  1.50000000
C   15.62000000  7.64878037  1.50000000
C   15.62000000  10.10829251  1.50000000
C   15.62000000  12.56780466  1.50000000
C   15.62000000  15.02731681  1.50000000
C   15.62000000  17.48682895  1.50000000
C   15.62000000  19.94634110  1.50000000
C   15.62000000  22.40585325  1.50000000
C   15.62000000  24.86536539  1.50000000
C   17.04000000  2.72975607  1.50000000
C   17.04000000  5.18926822  1.50000000
C   17.04000000  7.64878037  1.50000000
C   17.04000000  10.10829251  1.50000000
C   17.04000000  12.56780466  1.50000000
C   17.04000000  15.02731681  1.50000000
C   17.04000000  17.48682895  1.50000000
C   17.04000000  19.94634110  1.50000000
C   17.04000000  22.40585325  1.50000000
C   17.04000000  24.86536539  1.50000000
C   17.75000000  1.50000000  1.50000000
C   17.75000000  3.95951215  1.50000000
C   17.75000000  6.41902429  1.50000000
C   17.75000000  8.87853644  1.50000000
C   17.75000000  11.33804859  1.50000000
C   17.75000000  13.79756073  1.50000000
C   17.75000000  16.25707288  1.50000000
C   17.75000000  18.71658503  1.50000000
C   17.75000000  21.17609717  1.50000000
C   17.75000000  23.63560932  1.50000000
C   17.75000000  26.09512147  1.50000000
C   19.17000000  1.50000000  1.50000000
C   19.17000000  3.95951215  1.50000000
C   19.17000000  6.41902429  1.50000000
C   19.17000000  8.87853644  1.50000000
C   19.17000000  11.33804859  1.50000000
C   19.17000000  13.79756073  1.50000000
C   19.17000000  16.25707288  1.50000000
C   19.17000000  18.71658503  1.50000000
C   19.17000000  21.17609717  1.50000000
C   19.17000000  23.63560932  1.50000000
C   19.17000000  26.09512147  1.50000000
C   19.88000000  2.72975607  1.50000000
C   19.88000000  5.18926822  1.50000000
C   19.88000000  7.64878037  1.50000000
C   19.88000000  10.10829251  1.50000000
C   19.88000000  12.56780466  1.50000000
C   19.88000000  15.02731681  1.50000000
C   19.88000000  17.48682895  1.50000000
C   19.88000000  19.94634110  1.50000000
C   19.88000000  22.40585325  1.50000000
C   19.88000000  24.86536539  1.50000000
C   21.30000000  2.72975607  1.50000000
C   21.30000000  5.18926822  1.50000000
C   21.30000000  7.64878037  1.50000000
C   21.30000000  10.10829251  1.50000000
C   21.30000000  12.56780466  1.50000000
C   21.30000000  15.02731681  1.50000000
C   21.30000000  17.48682895  1.50000000
C   21.30000000  19.94634110  1.50000000
C   21.30000000  22.40585325  1.50000000
C   21.30000000  24.86536539  1.50000000
C   22.01000000  1.50000000  1.50000000
C   22.01000000  3.95951215  1.50000000
C   22.01000000  6.41902429  1.50000000
C   22.01000000  8.87853644  1.50000000
C   22.01000000  11.33804859  1.50000000
C   22.01000000  13.79756073  1.50000000
C   22.01000000  16.25707288  1.50000000
C   22.01000000  18.71658503  1.50000000
C   22.01000000  21.17609717  1.50000000
C   22.01000000  23.63560932  1.50000000
C   22.01000000  26.09512147  1.50000000
C   23.43000000  1.50000000  1.50000000
C   23.43000000  3.95951215  1.50000000
C   23.43000000  6.41902429  1.50000000
C   23.43000000  8.87853644  1.50000000
C   23.43000000  11.33804859  1.50000000
C   23.43000000  13.79756073  1.50000000
C   23.43000000  16.25707288  1.50000000
C   23.43000000  18.71658503  1.50000000
C   23.43000000  21.17609717  1.50000000
C   23.43000000  23.63560932  1.50000000
C   23.43000000  26.09512147  1.50000000
C   24.14000000  2.72975607  1.50000000
C   24.14000000  5.18926822  1.50000000
C   24.14000000  7.64878037  1.50000000
C   24.14000000  10.10829251  1.50000000
C   24.14000000  12.56780466  1.50000000
C   24.14000000  15.02731681  1.50000000
C   24.14000000  17.48682895  1.50000000
C   24.14000000  19.94634110  1.50000000
C   24.14000000  22.40585325  1.50000000
C   24.14000000  24.86536539  1.50000000
C   25.56000000  2.72975607  1.50000000
C   25.56000000  5.18926822  1.50000000
C   25.56000000  7.64878037  1.50000000
C   25.56000000  10.10829251  1.50000000
C   25.56000000  12.56780466  1.50000000
C   25.56000000  15.02731681  1.50000000
C   25.56000000  17.48682895  1.50000000
C   25.56000000  19.94634110  1.50000000
C   25.56000000  22.40585325  1.50000000
C   25.56000000  24.86536539  1.50000000
C   26.27000000  1.50000000  1.50000000
C   26.27000000  3.95951215  1.50000000
C   26.27000000  6.41902429  1.50000000
C   26.27000000  8.87853644  1.50000000
C   26.27000000  11.33804859  1.50000000
C   26.27000000  13.79756073  1.50000000
C   26.27000000  16.25707288  1.50000000
C   26.27000000  18.71658503  1.50000000
C   26.27000000  21.17609717  1.50000000
C   26.27000000  23.63560932  1.50000000
C   26.27000000  26.09512147  1.50000000
C   27.69000000  1.50000000  1.50000000
C   27.69000000  3.95951215  1.50000000
C   27.69000000  6.41902429  1.50000000
C   27.69000000  8.87853644  1.50000000
C   27.69000000  11.33804859  1.50000000
C   27.69000000  13.79756073  1.50000000
C   27.69000000  16.25707288  1.50000000
C   27.69000000  18.71658503  1.50000000
C   27.69000000  21.17609717  1.50000000
C   27.69000000  23.63560932  1.50000000
C   27.69000000  26.09512147  1.50000000
C   28.40000000  2.72975607  1.50000000
C   28.40000000  5.18926822  1.50000000
C   28.40000000  7.64878037  1.50000000
C   28.40000000  10.10829251  1.50000000
C   28.40000000  12.56780466  1.50000000
C   28.40000000  15.02731681  1.50000000
C   28.40000000  17.48682895  1.50000000
C   28.40000000  19.94634110  1.50000000
C   28.40000000  22.40585325  1.50000000
C   28.40000000  24.86536539  1.50000000
C   29.82000000  2.72975607  1.50000000
C   29.82000000  5.18926822  1.50000000
C   29.82000000  7.64878037  1.50000000
C   29.82000000  10.10829251  1.50000000
C   29.82000000  12.56780466  1.50000000
C   29.82000000  15.02731681  1.50000000
C   29.82000000  17.48682895  1.50000000
C   29.82000000  19.94634110  1.50000000
C   29.82000000  22.40585325  1.50000000
C   29.82000000  24.86536539  1.50000000
C   30.53000000  1.50000000  1.50000000
C   30.53000000  3.95951215  1.50000000
C   30.53000000  6.41902429  1.50000000
C   30.53000000  8.87853644  1.50000000
C   30.53000000  11.33804859  1.50000000
C   30.53000000  13.79756073  1.50000000
C   30.53000000  16.25707288  1.50000000
C   30.53000000  18.71658503  1.50000000
C   30.53000000  21.17609717  1.50000000
C   30.53000000  23.63560932  1.50000000
C   30.53000000  26.09512147  1.50000000
C   31.95000000  1.50000000  1.50000000
C   31.95000000  3.95951215  1.50000000
C   31.95000000  6.41902429  1.50000000
C   31.95000000  8.87853644  1.50000000
C   31.95000000  11.33804859  1.50000000
C   31.95000000  13.79756073  1.50000000
C   31.95000000  16.25707288  1.50000000
C   31.95000000  18.71658503  1.50000000
C   31.95000000  21.17609717  1.50000000
C   31.95000000  23.63560932  1.50000000
C   31.95000000  26.09512147  1.50000000
C   32.66000000  2.72975607  1.50000000
C   32.66000000  5.18926822  1.50000000
C   32.66000000  7.64878037  1.50000000
C   32.66000000  10.10829251  1.50000000
C   32.66000000  12.56780466  1.50000000
C   32.66000000  15.02731681  1.50000000
C   32.66000000  17.48682895  1.50000000
C   32.66000000  19.94634110  1.50000000
C   32.66000000  22.40585325  1.50000000
C   32.66000000  24.86536539  1.50000000
C   34.08000000  2.72975607  1.50000000
C   34.08000000  5.18926822  1.50000000
C   34.08000000  7.64878037  1.50000000
C   34.08000000  10.10829251  1.50000000
C   34.08000000  12.56780466  1.50000000
C   34.08000000  15.02731681  1.50000000
C   34.08000000  17.48682895  1.50000000
C   34.08000000  19.94634110  1.50000000
C   34.08000000  22.40585325  1.50000000
C   34.08000000  24.86536539  1.50000000
C   34.79000000  1.50000000  1.50000000
C   34.79000000  3.95951215  1.50000000
C   34.79000000  6.41902429  1.50000000
C   34.79000000  8.87853644  1.50000000
C   34.79000000  11.33804859  1.50000000
C   34.79000000  13.79756073  1.50000000
C   34.79000000  16.25707288  1.50000000
C   34.79000000  18.71658503  1.50000000
C   34.79000000  21.17609717  1.50000000
C   34.79000000  23.63560932  1.50000000
C   34.79000000  26.09512147  1.50000000
C   36.21000000  1.50000000  1.50000000
C   36.21000000  3.95951215  1.50000000
C   36.21000000  6.41902429  1.50000000
C   36.21000000  8.87853644  1.50000000
C   36.21000000  11.33804859  1.50000000
C   36.21000000  13.79756073  1.50000000
C   36.21000000  16.25707288  1.50000000
C   36.21000000  18.71658503  1.50000000
C   36.21000000  21.17609717  1.50000000
C   36.21000000  23.63560932  1.50000000
C   36.21000000  26.09512147  1.50000000
C   36.92000000  2.72975607  1.50000000
C   36.92000000  5.18926822  1.50000000
C   36.92000000  7.64878037  1.50000000
C   36.92000000  10.10829251  1.50000000
C   36.92000000  12.56780466  1.50000000
C   36.92000000  15.02731681  1.50000000
C   36.92000000  17.48682895  1.50000000
C   36.92000000  19.94634110  1.50000000
C   36.92000000  22.40585325  1.50000000
C   36.92000000  24.86536539  1.50000000
C   38.34000000  2.72975607  1.50000000
C   38.34000000  5.18926822  1.50000000
C   38.34000000  7.64878037  1.50000000
C   38.34000000  10.10829251  1.50000000
C   38.34000000  12.56780466  1.50000000
C   38.34000000  15.02731681  1.50000000
C   38.34000000  17.48682895  1.50000000
C   38.34000000  19.94634110  1.50000000
C   38.34000000  22.40585325  1.50000000
C   38.34000000  24.86536539  1.50000000
C   39.05000000  1.50000000  1.50000000
C   39.05000000  3.95951215  1.50000000
C   39.05000000  6.41902429  1.50000000
C   39.05000000  8.87853644  1.50000000
C   39.05000000  11.33804859  1.50000000
C   39.05000000  13.79756073  1.50000000
C   39.05000000  16.25707288  1.50000000
C   39.05000000  18.71658503  1.50000000
C   39.05000000  21.17609717  1.50000000
C   39.05000000  23.63560932  1.50000000
C   39.05000000  26.09512147  1.50000000
C   40.47000000  1.50000000  1.50000000
C   40.47000000  3.95951215  1.50000000
C   40.47000000  6.41902429  1.50000000
C   40.47000000  8.87853644  1.50000000
C   40.47000000  11.33804859  1.50000000
C   40.47000000  13.79756073  1.50000000
C   40.47000000  16.25707288  1.50000000
C   40.47000000  18.71658503  1.50000000
C   40.47000000  21.17609717  1.50000000
C   40.47000000  23.63560932  1.50000000
C   40.47000000  26.09512147  1.50000000
C   41.18000000  2.72975607  1.50000000
C   41.18000000  5.18926822  1.50000000
C   41.18000000  7.64878037  1.50000000
C   41.18000000  10.10829251  1.50000000
C   41.18000000  12.56780466  1.50000000
C   41.18000000  15.02731681  1.50000000
C   41.18000000  17.48682895  1.50000000
C   41.18000000  19.94634110  1.50000000
C   41.18000000  22.40585325  1.50000000
C   41.18000000  24.86536539  1.50000000
C   42.60000000  2.72975607  1.50000000
C   42.60000000  5.18926822  1.50000000
C   42.60000000  7.64878037  1.50000000
C   42.60000000  10.10829251  1.50000000
C   42.60000000  12.56780466  1.50000000
C   42.60000000  15.02731681  1.50000000
C   42.60000000  17.48682895  1.50000000
C   42.60000000  19.94634110  1.50000000
C   42.60000000  22.40585325  1.50000000
C   42.60000000  24.86536539  1.50000000
C   43.31000000  1.50000000  1.50000000
C   43.31000000  3.95951215  1.50000000
C   43.31000000  6.41902429  1.50000000
C   43.31000000  8.87853644  1.50000000
C   43.31000000  11.33804859  1.50000000
C   43.31000000  13.79756073  1.50000000
C   43.31000000  16.25707288  1.50000000
C   43.31000000  18.71658503  1.50000000
C   43.31000000  21.17609717  1.50000000
C   43.31000000  23.63560932  1.50000000
C   43.31000000  26.09512147  1.50000000
C   44.73000000  1.50000000  1.50000000
C   44.73000000  3.95951215  1.50000000
C   44.73000000  6.41902429  1.50000000
C   44.73000000  8.87853644  1.50000000
C   44.73000000  11.33804859  1.50000000
C   44.73000000  13.79756073  1.50000000
C   44.73000000  16.25707288  1.50000000
C   44.73000000  18.71658503  1.50000000
C   44.73000000  21.17609717  1.50000000
C   44.73000000  23.63560932  1.50000000
C   44.73000000  26.09512147  1.50000000
C   45.44000000  2.72975607  1.50000000
C   45.44000000  5.18926822  1.50000000
C   45.44000000  7.64878037  1.50000000
C   45.44000000  10.10829251  1.50000000
C   45.44000000  12.56780466  1.50000000
C   45.44000000  15.02731681  1.50000000
C   45.44000000  17.48682895  1.50000000
C   45.44000000  19.94634110  1.50000000
C   45.44000000  22.40585325  1.50000000
C   45.44000000  24.86536539  1.50000000
C   46.86000000  2.72975607  1.50000000
C   46.86000000  5.18926822  1.50000000
C   46.86000000  7.64878037  1.50000000
C   46.86000000  10.10829251  1.50000000
C   46.86000000  12.56780466  1.50000000
C   46.86000000  15.02731681  1.50000000
C   46.86000000  17.48682895  1.50000000
C   46.86000000  19.94634110  1.50000000
C   46.86000000  22.40585325  1.50000000
C   46.86000000  24.86536539  1.50000000
C   47.57000000  1.50000000  1.50000000
C   47.57000000  3.95951215  1.50000000
C   47.57000000  6.41902429  1.50000000
C   47.57000000  8.87853644  1.50000000
C   47.57000000  11.33804859  1.50000000
C   47.57000000  13.79756073  1.50000000
C   47.57000000  16.25707288  1.50000000
C   47.57000000  18.71658503  1.50000000
C   47.57000000  21.17609717  1.50000000
C   47.57000000  23.63560932  1.50000000
C   47.57000000  26.09512147  1.50000000
C   48.99000000  1.50000000  1.50000000
C   48.99000000  3.95951215  1.50000000
C   48.99000000  6.41902429  1.50000000
C   48.99000000  8.87853644  1.50000000
C   48.99000000  11.33804859  1.50000000
C   48.99000000  13.79756073  1.50000000
C   48.99000000  16.25707288  1.50000000
C   48.99000000  18.71658503  1.50000000
C   48.99000000  21.17609717  1.50000000
C   48.99000000  23.63560932  1.50000000
C   48.99000000  26.09512147  1.50000000
C   49.70000000  2.72975607  1.50000000
C   49.70000000  5.18926822  1.50000000
C   49.70000000  7.64878037  1.50000000
C   49.70000000  10.10829251  1.50000000
C   49.70000000  12.56780466  1.50000000
C   49.70000000  15.02731681  1.50000000
C   49.70000000  17.48682895  1.50000000
C   49.70000000  19.94634110  1.50000000
C   49.70000000  22.40585325  1.50000000
C   49.70000000  24.86536539  1.50000000
C   51.12000000  2.72975607  1.50000000
C   51.12000000  5.18926822  1.50000000
C   51.12000000  7.64878037  1.50000000
C   51.12000000  10.10829251  1.50000000
C   51.12000000  12.56780466  1.50000000
C   51.12000000  15.02731681  1.50000000
C   51.12000000  17.48682895  1.50000000
C   51.12000000  19.94634110  1.50000000
C   51.12000000  22.40585325  1.50000000
C   51.12000000  24.86536539  1.50000000
C   51.83000000  1.50000000  1.50000000
C   51.83000000  3.95951215  1.50000000
C   51.83000000  6.41902429  1.50000000
C   51.83000000  8.87853644  1.50000000
C   51.83000000  11.33804859  1.50000000
C   51.83000000  13.79756073  1.50000000
C   51.83000000  16.25707288  1.50000000
C   51.83000000  18.71658503  1.50000000
C   51.83000000  21.17609717  1.50000000
C   51.83000000  23.63560932  1.50000000
C   51.83000000  26.09512147  1.50000000
C   53.25000000  1.50000000  1.50000000
C   53.25000000  3.95951215  1.50000000
C   53.25000000  6.41902429  1.50000000
C   53.25000000  8.87853644  1.50000000
C   53.25000000  11.33804859  1.50000000
C   53.25000000  13.79756073  1.50000000
C   53.25000000  16.25707288  1.50000000
C   53.25000000  18.71658503  1.50000000
C   53.25000000  21.17609717  1.50000000
C   53.25000000  23.63560932  1.50000000
C   53.25000000  26.09512147  1.50000000
C   53.96000000  2.72975607  1.50000000
C   53.96000000  5.18926822  1.50000000
C   53.96000000  7.64878037  1.50000000
C   53.96000000  10.10829251  1.50000000
C   53.96000000  12.56780466  1.50000000
C   53.96000000  15.02731681  1.50000000
C   53.96000000  17.48682895  1.50000000
C   53.96000000  19.94634110  1.50000000
C   53.96000000  22.40585325  1.50000000
C   53.96000000  24.86536539  1.50000000
C   55.38000000  2.72975607  1.50000000
C   55.38000000  5.18926822  1.50000000
C   55.38000000  7.64878037  1.50000000
C   55.38000000  10.10829251  1.50000000
C   55.38000000  12.56780466  1.50000000
C   55.38000000  15.02731681  1.50000000
C   55.38000000  17.48682895  1.50000000
C   55.38000000  19.94634110  1.50000000
C   55.38000000  22.40585325  1.50000000
C   55.38000000  24.86536539  1.50000000
C   56.09000000  1.50000000  1.50000000
C   56.09000000  3.95951215  1.50000000
C   56.09000000  6.41902429  1.50000000
C   56.09000000  8.87853644  1.50000000
C   56.09000000  11.33804859  1.50000000
C   56.09000000  13.79756073  1.50000000
C   56.09000000  16.25707288  1.50000000
C   56.09000000  18.71658503  1.50000000
C   56.09000000  21.17609717  1.50000000
C   56.09000000  23.63560932  1.50000000
C   56.09000000  26.09512147  1.50000000
C   57.51000000  1.50000000  1.50000000
C   57.51000000  3.95951215  1.50000000
C   57.51000000  6.41902429  1.50000000
C   57.51000000  8.87853644  1.50000000
C   57.51000000  11.33804859  1.50000000
C   57.51000000  13.79756073  1.50000000
C   57.51000000  16.25707288  1.50000000
C   57.51000000  18.71658503  1.50000000
C   57.51000000  21.17609717  1.50000000
C   57.51000000  23.63560932  1.50000000
C   57.51000000  26.09512147  1.50000000
C   58.22000000  2.72975607  1.50000000
C   58.22000000  5.18926822  1.50000000
C   58.22000000  7.64878037  1.50000000
C   58.22000000  10.10829251  1.50000000
C   58.22000000  12.56780466  1.50000000
C   58.22000000  15.02731681  1.50000000
C   58.22000000  17.48682895  1.50000000
C   58.22000000  19.94634110  1.50000000
C   58.22000000  22.40585325  1.50000000
C   58.22000000  24.86536539  1.50000000
C   59.64000000  2.72975607  1.50000000
C   59.64000000  5.18926822  1.50000000
C   59.64000000  7.64878037  1.50000000
C   59.64000000  10.10829251  1.50000000
C   59.64000000  12.56780466  1.50000000
C   59.64000000  15.02731681  1.50000000
C   59.64000000  17.48682895  1.50000000
C   59.64000000  19.94634110  1.50000000
C   59.64000000  22.40585325  1.50000000
C   59.64000000  24.86536539  1.50000000
C   60.35000000  1.50000000  1.50000000
C   60.35000000  3.95951215  1.50000000
C   60.35000000  6.41902429  1.50000000
C   60.35000000  8.87853644  1.50000000
C   60.35000000  11.33804859  1.50000000
C   60.35000000  13.79756073  1.50000000
C   60.35000000  16.25707288  1.50000000
C   60.35000000  18.71658503  1.50000000
C   60.35000000  21.17609717  1.50000000
C   60.35000000  23.63560932  1.50000000
C   60.35000000  26.09512147  1.50000000
C   61.77000000  1.50000000  1.50000000
C   61.77000000  3.95951215  1.50000000
C   61.77000000  6.41902429  1.50000000
C   61.77000000  8.87853644  1.50000000
C   61.77000000  11.33804859  1.50000000
C   61.77000000  13.79756073  1.50000000
C   61.77000000  16.25707288  1.50000000
C   61.77000000  18.71658503  1.50000000
C   61.77000000  21.17609717  1.50000000
C   61.77000000  23.63560932  1.50000000
C   61.77000000  26.09512147  1.50000000
C   62.48000000  2.72975607  1.50000000
C   62.48000000  5.18926822  1.50000000
C   62.48000000  7.64878037  1.50000000
C   62.48000000  10.10829251  1.50000000
C   62.48000000  12.56780466  1.50000000
C   62.48000000  15.02731681  1.50000000
C   62.48000000  17.48682895  1.50000000
C   62.48000000  19.94634110  1.50000000
C   62.48000000  22.40585325  1.50000000
C   62.48000000  24.86536539  1.50000000
C   63.90000000  2.72975607  1.50000000
C   63.90000000  5.18926822  1.50000000
C   63.90000000  7.64878037  1.50000000
C   63.90000000  10.10829251  1.50000000
C   63.90000000  12.56780466  1.50000000
C   63.90000000  15.02731681  1.50000000
C   63.90000000  17.48682895  1.50000000
C   63.90000000  19.94634110  1.50000000
C   63.90000000  22.40585325  1.50000000
C   63.90000000  24.86536539  1.50000000
C   64.61000000  1.50000000  1.50000000
C   64.61000000  3.95951215  1.50000000
C   64.61000000  6.41902429  1.50000000
C   64.61000000  8.87853644  1.50000000
C   64.61000000  11.33804859  1.50000000
C   64.61000000  13.79756073  1.50000000
C   64.61000000  16.25707288  1.50000000
C   64.61000000  18.71658503  1.50000000
C   64.61000000  21.17609717  1.50000000
C   64.61000000  23.63560932  1.50000000
C   64.61000000  26.09512147  1.50000000
C   66.03000000  1.50000000  1.50000000
C   66.03000000  3.95951215  1.50000000
C   66.03000000  6.41902429  1.50000000
C   66.03000000  8.87853644  1.50000000
C   66.03000000  11.33804859  1.50000000
C   66.03000000  13.79756073  1.50000000
C   66.03000000  16.25707288  1.50000000
C   66.03000000  18.71658503  1.50000000
C   66.03000000  21.17609717  1.50000000
C   66.03000000  23.63560932  1.50000000
C   66.03000000  26.09512147  1.50000000
C   66.74000000  2.72975607  1.50000000
C   66.74000000  5.18926822  1.50000000
C   66.74000000  7.64878037  1.50000000
C   66.74000000  10.10829251  1.50000000
C   66.74000000  12.56780466  1.50000000
C   66.74000000  15.02731681  1.50000000
C   66.74000000  17.48682895  1.50000000
C   66.74000000  19.94634110  1.50000000
C   66.74000000  22.40585325  1.50000000
C   66.74000000  24.86536539  1.50000000
C   68.16000000  2.72975607  1.50000000
C   68.16000000  5.18926822  1.50000000
C   68.16000000  7.64878037  1.50000000
C   68.16000000  10.10829251  1.50000000
C   68.16000000  12.56780466  1.50000000
C   68.16000000  15.02731681  1.50000000
C   68.16000000  17.48682895  1.50000000
C   68.16000000  19.94634110  1.50000000
C   68.16000000  22.40585325  1.50000000
C   68.16000000  24.86536539  1.50000000
C   68.87000000  1.50000000  1.50000000
C   68.87000000  3.95951215  1.50000000
C   68.87000000  6.41902429  1.50000000
C   68.87000000  8.87853644  1.50000000
C   68.87000000  11.33804859  1.50000000
C   68.87000000  13.79756073  1.50000000
C   68.87000000  16.25707288  1.50000000
C   68.87000000  18.71658503  1.50000000
C   68.87000000  21.17609717  1.50000000
C   68.87000000  23.63560932  1.50000000
C   68.87000000  26.09512147  1.50000000
C   70.29000000  1.50000000  1.50000000
C   70.29000000  3.95951215  1.50000000
C   70.29000000  6.41902429  1.50000000
C   70.29000000  8.87853644  1.50000000
C   70.29000000  11.33804859  1.50000000
C   70.29000000  13.79756073  1.50000000
C   70.29000000  16.25707288  1.50000000
C   70.29000000  18.71658503  1.50000000
C   70.29000000  21.17609717  1.50000000
C   70.29000000  23.63560932  1.50000000
C   70.29000000  26.09512147  1.50000000
C   71.00000000  2.72975607  1.50000000
C   71.00000000  5.18926822  1.50000000
C   71.00000000  7.64878037  1.50000000
C   71.00000000  10.10829251  1.50000000
C   71.00000000  12.56780466  1.50000000
C   71.00000000  15.02731681  1.50000000
C   71.00000000  17.48682895  1.50000000
C   71.00000000  19.94634110  1.50000000
C   71.00000000  22.40585325  1.50000000
C   71.00000000  24.86536539  1.50000000
C   72.42000000  2.72975607  1.50000000
C   72.42000000  5.18926822  1.50000000
C   72.42000000  7.64878037  1.50000000
C   72.42000000  10.10829251  1.50000000
C   72.42000000  12.56780466  1.50000000
C   72.42000000  15.02731681  1.50000000
C   72.42000000  17.48682895  1.50000000
C   72.42000000  19.94634110  1.50000000
C   72.42000000  22.40585325  1.50000000
C   72.42000000  24.86536539  1.50000000
C   73.13000000  1.50000000  1.50000000
C   73.13000000  3.95951215  1.50000000
C   73.13000000  6.41902429  1.50000000
C   73.13000000  8.87853644  1.50000000
C   73.13000000  11.33804859  1.50000000
C   73.13000000  13.79756073  1.50000000
C   73.13000000  16.25707288  1.50000000
C   73.13000000  18.71658503  1.50000000
C   73.13000000  21.17609717  1.50000000
C   73.13000000  23.63560932  1.50000000
C   73.13000000  26.09512147  1.50000000
C   74.55000000  1.50000000  1.50000000
C   74.55000000  3.95951215  1.50000000
C   74.55000000  6.41902429  1.50000000
C   74.55000000  8.87853644  1.50000000
C   74.55000000  11.33804859  1.50000000
C   74.55000000  13.79756073  1.50000000
C   74.55000000  16.25707288  1.50000000
C   74.55000000  18.71658503  1.50000000
C   74.55000000  21.17609717  1.50000000
C   74.55000000  23.63560932  1.50000000
C   74.55000000  26.09512147  1.50000000
C   75.26000000  2.72975607  1.50000000
C   75.26000000  5.18926822  1.50000000
C   75.26000000  7.64878037  1.50000000
C   75.26000000  10.10829251  1.50000000
C   75.26000000  12.56780466  1.50000000
C   75.26000000  15.02731681  1.50000000
C   75.26000000  17.48682895  1.50000000
C   75.26000000  19.94634110  1.50000000
C   75.26000000  22.40585325  1.50000000
C   75.26000000  24.86536539  1.50000000
C   76.68000000  2.72975607  1.50000000
C   76.68000000  5.18926822  1.50000000
C   76.68000000  7.64878037  1.50000000
C   76.68000000  10.10829251  1.50000000
C   76.68000000  12.56780466  1.50000000
C   76.68000000  15.02731681  1.50000000
C   76.68000000  17.48682895  1.50000000
C   76.68000000  19.94634110  1.50000000
C   76.68000000  22.40585325  1.50000000
C   76.68000000  24.86536539  1.50000000
C   77.39000000  1.50000000  1.50000000
C   77.39000000  3.95951215  1.50000000
C   77.39000000  6.41902429  1.50000000
C   77.39000000  8.87853644  1.50000000
C   77.39000000  11.33804859  1.50000000
C   77.39000000  13.79756073  1.50000000
C   77.39000000  16.25707288  1.50000000
C   77.39000000  18.71658503  1.50000000
C   77.39000000  21.17609717  1.50000000
C   77.39000000  23.63560932  1.50000000
C   77.39000000  26.09512147  1.50000000
C   78.81000000  1.50000000  1.50000000
C   78.81000000  3.95951215  1.50000000
C   78.81000000  6.41902429  1.50000000
C   78.81000000  8.87853644  1.50000000
C   78.81000000  11.33804859  1.50000000
C   78.81000000  13.79756073  1.50000000
C   78.81000000  16.25707288  1.50000000
C   78.81000000  18.71658503  1.50000000
C   78.81000000  21.17609717  1.50000000
C   78.81000000  23.63560932  1.50000000
C   78.81000000  26.09512147  1.50000000
C   79.52000000  2.72975607  1.50000000
C   79.52000000  5.18926822  1.50000000
C   79.52000000  7.64878037  1.50000000
C   79.52000000  10.10829251  1.50000000
C   79.52000000  12.56780466  1.50000000
C   79.52000000  15.02731681  1.50000000
C   79.52000000  17.48682895  1.50000000
C   79.52000000  19.94634110  1.50000000
C   79.52000000  22.40585325  1.50000000
C   79.52000000  24.86536539  1.50000000
C   80.94000000  2.72975607  1.50000000
C   80.94000000  5.18926822  1.50000000
C   80.94000000  7.64878037  1.50000000
C   80.94000000  10.10829251  1.50000000
C   80.94000000  12.56780466  1.50000000
C   80.94000000  15.02731681  1.50000000
C   80.94000000  17.48682895  1.50000000
C   80.94000000  19.94634110  1.50000000
C   80.94000000  22.40585325  1.50000000
C   80.94000000  24.86536539  1.50000000
C   81.65000000  1.50000000  1.50000000
C   81.65000000  3.95951215  1.50000000
C   81.65000000  6.41902429  1.50000000
C   81.65000000  8.87853644  1.50000000
C   81.65000000  11.33804859  1.50000000
C   81.65000000  13.79756073  1.50000000
C   81.65000000  16.25707288  1.50000000
C   81.65000000  18.71658503  1.50000000
C   81.65000000  21.17609717  1.50000000
C   81.65000000  23.63560932  1.50000000
C   81.65000000  26.09512147  1.50000000
C   83.07000000  1.50000000  1.50000000
C   83.07000000  3.95951215  1.50000000
C   83.07000000  6.41902429  1.50000000
C   83.07000000  8.87853644  1.50000000
C   83.07000000  11.33804859  1.50000000
C   83.07000000  13.79756073  1.50000000
C   83.07000000  16.25707288  1.50000000
C   83.07000000  18.71658503  1.50000000
C   83.07000000  21.17609717  1.50000000
C   83.07000000  23.63560932  1.50000000
C   83.07000000  26.09512147  1.50000000
C   83.78000000  2.72975607  1.50000000
C   83.78000000  5.18926822  1.50000000
C   83.78000000  7.64878037  1.50000000
C   83.78000000  10.10829251  1.50000000
C   83.78000000  12.56780466  1.50000000
C   83.78000000  15.02731681  1.50000000
C   83.78000000  17.48682895  1.50000000
C   83.78000000  19.94634110  1.50000000
C   83.78000000  22.40585325  1.50000000
C   83.78000000  24.86536539  1.50000000
C   85.20000000  2.72975607  1.50000000
C   85.20000000  5.18926822  1.50000000
C   85.20000000  7.64878037  1.50000000
C   85.20000000  10.10829251  1.50000000
C   85.20000000  12.56780466  1.50000000
C   85.20000000  15.02731681  1.50000000
C   85.20000000  17.48682895  1.50000000
C   85.20000000  19.94634110  1.50000000
C   85.20000000  22.40585325  1.50000000
C   85.20000000  24.86536539  1.50000000
C   85.91000000  1.50000000  1.50000000
C   85.91000000  3.95951215  1.50000000
C   85.91000000  6.41902429  1.50000000
C   85.91000000  8.87853644  1.50000000
C   85.91000000  11.33804859  1.50000000
C   85.91000000  13.79756073  1.50000000
C   85.91000000  16.25707288  1.50000000
C   85.91000000  18.71658503  1.50000000
C   85.91000000  21.17609717  1.50000000
C   85.91000000  23.63560932  1.50000000
C   85.91000000  26.09512147  1.50000000
C   87.33000000  1.50000000  1.50000000
C   87.33000000  3.95951215  1.50000000
C   87.33000000  6.41902429  1.50000000
C   87.33000000  8.87853644  1.50000000
C   87.33000000  11.33804859  1.50000000
C   87.33000000  13.79756073  1.50000000
C   87.33000000  16.25707288  1.50000000
C   87.33000000  18.71658503  1.50000000
C   87.33000000  21.17609717  1.50000000
C   87.33000000  23.63560932  1.50000000
C   87.33000000  26.09512147  1.50000000
C   88.04000000  2.72975607  1.50000000
C   88.04000000  5.18926822  1.50000000
C   88.04000000  7.64878037  1.50000000
C   88.04000000  10.10829251  1.50000000
C   88.04000000  12.56780466  1.50000000
C   88.04000000  15.02731681  1.50000000
C   88.04000000  17.48682895  1.50000000
C   88.04000000  19.94634110  1.50000000
C   88.04000000  22.40585325  1.50000000
C   88.04000000  24.86536539  1.50000000
C   89.46000000  2.72975607  1.50000000
C   89.46000000  5.18926822  1.50000000
C   89.46000000  7.64878037  1.50000000
C   89.46000000  10.10829251  1.50000000
C   89.46000000  12.56780466  1.50000000
C   89.46000000  15.02731681  1.50000000
C   89.46000000  17.48682895  1.50000000
C   89.46000000  19.94634110  1.50000000
C   89.46000000  22.40585325  1.50000000
C   89.46000000  24.86536539  1.50000000
C   90.17000000  1.50000000  1.50000000
C   90.17000000  3.95951215  1.50000000
C   90.17000000  6.41902429  1.50000000
C   90.17000000  8.87853644  1.50000000
C   90.17000000  11.33804859  1.50000000
C   90.17000000  13.79756073  1.50000000
C   90.17000000  16.25707288  1.50000000
C   90.17000000  18.71658503  1.50000000
C   90.17000000  21.17609717  1.50000000
C   90.17000000  23.63560932  1.50000000
C   90.17000000  26.09512147  1.50000000
C   91.59000000  1.50000000  1.50000000
C   91.59000000  3.95951215  1.50000000
C   91.59000000  6.41902429  1.50000000
C   91.59000000  8.87853644  1.50000000
C   91.59000000  11.33804859  1.50000000
C   91.59000000  13.79756073  1.50000000
C   91.59000000  16.25707288  1.50000000
C   91.59000000  18.71658503  1.50000000
C   91.59000000  21.17609717  1.50000000
C   91.59000000  23.63560932  1.50000000
C   91.59000000  26.09512147  1.50000000
C   92.30000000  2.72975607  1.50000000
C   92.30000000  5.18926822  1.50000000
C   92.30000000  7.64878037  1.50000000
C   92.30000000  10.10829251  1.50000000
C   92.30000000  12.56780466  1.50000000
C   92.30000000  15.02731681  1.50000000
C   92.30000000  17.48682895  1.50000000
C   92.30000000  19.94634110  1.50000000
C   92.30000000  22.40585325  1.50000000
C   92.30000000  24.86536539  1.50000000
C   93.72000000  2.72975607  1.50000000
C   93.72000000  5.18926822  1.50000000
C   93.72000000  7.64878037  1.50000000
C   93.72000000  10.10829251  1.50000000
C   93.72000000  12.56780466  1.50000000
C   93.72000000  15.02731681  1.50000000
C   93.72000000  17.48682895  1.50000000
C   93.72000000  19.94634110  1.50000000
C   93.72000000  22.40585325  1.50000000
C   93.72000000  24.86536539  1.50000000
C   94.43000000  1.50000000  1.50000000
C   94.43000000  3.95951215  1.50000000
C   94.43000000  6.41902429  1.50000000
C   94.43000000  8.87853644  1.50000000
C   94.43000000  11.33804859  1.50000000
C   94.43000000  13.79756073  1.50000000
C   94.43000000  16.25707288  1.50000000
C   94.43000000  18.71658503  1.50000000
C   94.43000000  21.17609717  1.50000000
C   94.43000000  23.63560932  1.50000000
C   94.43000000  26.09512147  1.50000000
C   95.85000000  1.50000000  1.50000000
C   95.85000000  3.95951215  1.50000000
C   95.85000000  6.41902429  1.50000000
C   95.85000000  8.87853644  1.50000000
C   95.85000000  11.33804859  1.50000000
C   95.85000000  13.79756073  1.50000000
C   95.85000000  16.25707288  1.50000000
C   95.85000000  18.71658503  1.50000000
C   95.85000000  21.17609717  1.50000000
C   95.85000000  23.63560932  1.50000000
C   95.85000000  26.09512147  1.50000000
C   96.56000000  2.72975607  1.50000000
C   96.56000000  5.18926822  1.50000000
C   96.56000000  7.64878037  1.50000000
C   96.56000000  10.10829251  1.50000000
C   96.56000000  12.56780466  1.50000000
C   96.56000000  15.02731681  1.50000000
C   96.56000000  17.48682895  1.50000000
C   96.56000000  19.94634110  1.50000000
C   96.56000000  22.40585325  1.50000000
C   96.56000000  24.86536539  1.50000000
C   97.98000000  2.72975607  1.50000000
C   97.98000000  5.18926822  1.50000000
C   97.98000000  7.64878037  1.50000000
C   97.98000000  10.10829251  1.50000000
C   97.98000000  12.56780466  1.50000000
C   97.98000000  15.02731681  1.50000000
C   97.98000000  17.48682895  1.50000000
C   97.98000000  19.94634110  1.50000000
C   97.98000000  22.40585325  1.50000000
C   97.98000000  24.86536539  1.50000000
C   98.69000000  1.50000000  1.50000000
C   98.69000000  3.95951215  1.50000000
C   98.69000000  6.41902429  1.50000000
C   98.69000000  8.87853644  1.50000000
C   98.69000000  11.33804859  1.50000000
C   98.69000000  13.79756073  1.50000000
C   98.69000000  16.25707288  1.50000000
C   98.69000000  18.71658503  1.50000000
C   98.69000000  21.17609717  1.50000000
C   98.69000000  23.63560932  1.50000000
C   98.69000000  26.09512147  1.50000000
C   100.11000000  1.50000000  1.50000000
C   100.11000000  3.95951215  1.50000000
C   100.11000000  6.41902429  1.50000000
C   100.11000000  8.87853644  1.50000000
C   100.11000000  11.33804859  1.50000000
C   100.11000000  13.79756073  1.50000000
C   100.11000000  16.25707288  1.50000000
C   100.11000000  18.71658503  1.50000000
C   100.11000000  21.17609717  1.50000000
C   100.11000000  23.63560932  1.50000000
C   100.11000000  26.09512147  1.50000000
C   100.82000000  2.72975607  1.50000000
C   100.82000000  5.18926822  1.50000000
C   100.82000000  7.64878037  1.50000000
C   100.82000000  10.10829251  1.50000000
C   100.82000000  12.56780466  1.50000000
C   100.82000000  15.02731681  1.50000000
C   100.82000000  17.48682895  1.50000000
C   100.82000000  19.94634110  1.50000000
C   100.82000000  22.40585325  1.50000000
C   100.82000000  24.86536539  1.50000000
C   102.24000000  2.72975607  1.50000000
C   102.24000000  5.18926822  1.50000000
C   102.24000000  7.64878037  1.50000000
C   102.24000000  10.10829251  1.50000000
C   102.24000000  12.56780466  1.50000000
C   102.24000000  15.02731681  1.50000000
C   102.24000000  17.48682895  1.50000000
C   102.24000000  19.94634110  1.50000000
C   102.24000000  22.40585325  1.50000000
C   102.24000000  24.86536539  1.50000000
C   102.95000000  1.50000000  1.50000000
C   102.95000000  3.95951215  1.50000000
C   102.95000000  6.41902429  1.50000000
C   102.95000000  8.87853644  1.50000000
C   102.95000000  11.33804859  1.50000000
C   102.95000000  13.79756073  1.50000000
C   102.95000000  16.25707288  1.50000000
C   102.95000000  18.71658503  1.50000000
C   102.95000000  21.17609717  1.50000000
C   102.95000000  23.63560932  1.50000000
C   102.95000000  26.09512147  1.50000000
C   104.37000000  1.50000000  1.50000000
C   104.37000000  3.95951215  1.50000000
C   104.37000000  6.41902429  1.50000000
C   104.37000000  8.87853644  1.50000000
C   104.37000000  11.33804859  1.50000000
C   104.37000000  13.79756073  1.50000000
C   104.37000000  16.25707288  1.50000000
C   104.37000000  18.71658503  1.50000000
C   104.37000000  21.17609717  1.50000000
C   104.37000000  23.63560932  1.50000000
C   104.37000000  26.09512147  1.50000000
C   105.08000000  2.72975607  1.50000000
C   105.08000000  5.18926822  1.50000000
C   105.08000000  7.64878037  1.50000000
C   105.08000000  10.10829251  1.50000000
C   105.08000000  12.56780466  1.50000000
C   105.08000000  15.02731681  1.50000000
C   105.08000000  17.48682895  1.50000000
C   105.08000000  19.94634110  1.50000000
C   105.08000000  22.40585325  1.50000000
C   105.08000000  24.86536539  1.50000000
C   106.50000000  2.72975607  1.50000000
C   106.50000000  5.18926822  1.50000000
C   106.50000000  7.64878037  1.50000000
C   106.50000000  10.10829251  1.50000000
C   106.50000000  12.56780466  1.50000000
C   106.50000000  15.02731681  1.50000000
C   106.50000000  17.48682895  1.50000000
C   106.50000000  19.94634110  1.50000000
C   106.50000000  22.40585325  1.50000000
C   106.50000000  24.86536539  1.50000000
C   107.21000000  1.50000000  1.50000000
C   107.21000000  3.95951215  1.50000000
C   107.21000000  6.41902429  1.50000000
C   107.21000000  8.87853644  1.50000000
C   107.21000000  11.33804859  1.50000000
C   107.21000000  13.79756073  1.50000000
C   107.21000000  16.25707288  1.50000000
C   107.21000000  18.71658503  1.50000000
C   107.21000000  21.17609717  1.50000000
C   107.21000000  23.63560932  1.50000000
C   107.21000000  26.09512147  1.50000000
C   108.63000000  1.50000000  1.50000000
C   108.63000000  3.95951215  1.50000000
C   108.63000000  6.41902429  1.50000000
C   108.63000000  8.87853644  1.50000000
C   108.63000000  11.33804859  1.50000000
C   108.63000000  13.79756073  1.50000000
C   108.63000000  16.25707288  1.50000000
C   108.63000000  18.71658503  1.50000000
C   108.63000000  21.17609717  1.50000000
C   108.63000000  23.63560932  1.50000000
C   108.63000000  26.09512147  1.50000000
C   109.34000000  2.72975607  1.50000000
C   109.34000000  5.18926822  1.50000000
C   109.34000000  7.64878037  1.50000000
C   109.34000000  10.10829251  1.50000000
C   109.34000000  12.56780466  1.50000000
C   109.34000000  15.02731681  1.50000000
C   109.34000000  17.48682895  1.50000000
C   109.34000000  19.94634110  1.50000000
C   109.34000000  22.40585325  1.50000000
C   109.34000000  24.86536539  1.50000000
C   110.76000000  2.72975607  1.50000000
C   110.76000000  5.18926822  1.50000000
C   110.76000000  7.64878037  1.50000000
C   110.76000000  10.10829251  1.50000000
C   110.76000000  12.56780466  1.50000000
C   110.76000000  15.02731681  1.50000000
C   110.76000000  17.48682895  1.50000000
C   110.76000000  19.94634110  1.50000000
C   110.76000000  22.40585325  1.50000000
C   110.76000000  24.86536539  1.50000000
C   111.47000000  1.50000000  1.50000000
C   111.47000000  3.95951215  1.50000000
C   111.47000000  6.41902429  1.50000000
C   111.47000000  8.87853644  1.50000000
C   111.47000000  11.33804859  1.50000000
C   111.47000000  13.79756073  1.50000000
C   111.47000000  16.25707288  1.50000000
C   111.47000000  18.71658503  1.50000000
C   111.47000000  21.17609717  1.50000000
C   111.47000000  23.63560932  1.50000000
C   111.47000000  26.09512147  1.50000000
C   112.89000000  1.50000000  1.50000000
C   112.89000000  3.95951215  1.50000000
C   112.89000000  6.41902429  1.50000000
C   112.89000000  8.87853644  1.50000000
C   112.89000000  11.33804859  1.50000000
C   112.89000000  13.79756073  1.50000000
C   112.89000000  16.25707288  1.50000000
C   112.89000000  18.71658503  1.50000000
C   112.89000000  21.17609717  1.50000000
C   112.89000000  23.63560932  1.50000000
C   112.89000000  26.09512147  1.50000000
C   113.60000000  2.72975607  1.50000000
C   113.60000000  5.18926822  1.50000000
C   113.60000000  7.64878037  1.50000000
C   113.60000000  10.10829251  1.50000000
C   113.60000000  12.56780466  1.50000000
C   113.60000000  15.02731681  1.50000000
C   113.60000000  17.48682895  1.50000000
C   113.60000000  19.94634110  1.50000000
C   113.60000000  22.40585325  1.50000000
C   113.60000000  24.86536539  1.50000000
C   115.02000000  2.72975607  1.50000000
C   115.02000000  5.18926822  1.50000000
C   115.02000000  7.64878037  1.50000000
C   115.02000000  10.10829251  1.50000000
C   115.02000000  12.56780466  1.50000000
C   115.02000000  15.02731681  1.50000000
C   115.02000000  17.48682895  1.50000000
C   115.02000000  19.94634110  1.50000000
C   115.02000000  22.40585325  1.50000000
C   115.02000000  24.86536539  1.50000000
C   115.73000000  1.50000000  1.50000000
C   115.73000000  3.95951215  1.50000000
C   115.73000000  6.41902429  1.50000000
C   115.73000000  8.87853644  1.50000000
C   115.73000000  11.33804859  1.50000000
C   115.73000000  13.79756073  1.50000000
C   115.73000000  16.25707288  1.50000000
C   115.73000000  18.71658503  1.50000000
C   115.73000000  21.17609717  1.50000000
C   115.73000000  23.63560932  1.50000000
C   115.73000000  26.09512147  1.50000000
C   117.15000000  1.50000000  1.50000000
C   117.15000000  3.95951215  1.50000000
C   117.15000000  6.41902429  1.50000000
C   117.15000000  8.87853644  1.50000000
C   117.15000000  11.33804859  1.50000000
C   117.15000000  13.79756073  1.50000000
C   117.15000000  16.25707288  1.50000000
C   117.15000000  18.71658503  1.50000000
C   117.15000000  21.17609717  1.50000000
C   117.15000000  23.63560932  1.50000000
C   117.15000000  26.09512147  1.50000000
C   117.86000000  2.72975607  1.50000000
C   117.86000000  5.18926822  1.50000000
C   117.86000000  7.64878037  1.50000000
C   117.86000000  10.10829251  1.50000000
C   117.86000000  12.56780466  1.50000000
C   117.86000000  15.02731681  1.50000000
C   117.86000000  17.48682895  1.50000000
C   117.86000000  19.94634110  1.50000000
C   117.86000000  22.40585325  1.50000000
C   117.86000000  24.86536539  1.50000000
C   119.28000000  2.72975607  1.50000000
C   119.28000000  5.18926822  1.50000000
C   119.28000000  7.64878037  1.50000000
C   119.28000000  10.10829251  1.50000000
C   119.28000000  12.56780466  1.50000000
C   119.28000000  15.02731681  1.50000000
C   119.28000000  17.48682895  1.50000000
C   119.28000000  19.94634110  1.50000000
C   119.28000000  22.40585325  1.50000000
C   119.28000000  24.86536539  1.50000000
C   119.99000000  1.50000000  1.50000000
C   119.99000000  3.95951215  1.50000000
C   119.99000000  6.41902429  1.50000000
C   119.99000000  8.87853644  1.50000000
C   119.99000000  11.33804859  1.50000000
C   119.99000000  13.79756073  1.50000000
C   119.99000000  16.25707288  1.50000000
C   119.99000000  18.71658503  1.50000000
C   119.99000000  21.17609717  1.50000000
C   119.99000000  23.63560932  1.50000000
C   119.99000000  26.09512147  1.50000000
C   121.41000000  1.50000000  1.50000000
C   121.41000000  3.95951215  1.50000000
C   121.41000000  6.41902429  1.50000000
C   121.41000000  8.87853644  1.50000000
C   121.41000000  11.33804859  1.50000000
C   121.41000000  13.79756073  1.50000000
C   121.41000000  16.25707288  1.50000000
C   121.41000000  18.71658503  1.50000000
C   121.41000000  21.17609717  1.50000000
C   121.41000000  23.63560932  1.50000000
C   121.41000000  26.09512147  1.50000000
C   122.12000000  2.72975607  1.50000000
C   122.12000000  5.18926822  1.50000000
C   122.12000000  7.64878037  1.50000000
C   122.12000000  10.10829251  1.50000000
C   122.12000000  12.56780466  1.50000000
C   122.12000000  15.02731681  1.50000000
C   122.12000000  17.48682895  1.50000000
C   122.12000000  19.94634110  1.50000000
C   122.12000000  22.40585325  1.50000000
C   122.12000000  24.86536539  1.50000000
C   123.54000000  2.72975607  1.50000000
C   123.54000000  5.18926822  1.50000000
C   123.54000000  7.64878037  1.50000000
C   123.54000000  10.10829251  1.50000000
C   123.54000000  12.56780466  1.50000000
C   123.54000000  15.02731681  1.50000000
C   123.54000000  17.48682895  1.50000000
C   123.54000000  19.94634110  1.50000000
C   123.54000000  22.40585325  1.50000000
C   123.54000000  24.86536539  1.50000000
C   124.25000000  1.50000000  1.50000000
C   124.25000000  3.95951215  1.50000000
C   124.25000000  6.41902429  1.50000000
C   124.25000000  8.87853644  1.50000000
C   124.25000000  11.33804859  1.50000000
C   124.25000000  13.79756073  1.50000000
C   124.25000000  16.25707288  1.50000000
C   124.25000000  18.71658503  1.50000000
C   124.25000000  21.17609717  1.50000000
C   124.25000000  23.63560932  1.50000000
C   124.25000000  26.09512147  1.50000000
C   125.67000000  1.50000000  1.50000000
C   125.67000000  3.95951215  1.50000000
C   125.67000000  6.41902429  1.50000000
C   125.67000000  8.87853644  1.50000000
C   125.67000000  11.33804859  1.50000000
C   125.67000000  13.79756073  1.50000000
C   125.67000000  16.25707288  1.50000000
C   125.67000000  18.71658503  1.50000000
C   125.67000000  21.17609717  1.50000000
C   125.67000000  23.63560932  1.50000000
C   125.67000000  26.09512147  1.50000000
C   126.38000000  2.72975607  1.50000000
C   126.38000000  5.18926822  1.50000000
C   126.38000000  7.64878037  1.50000000
C   126.38000000  10.10829251  1.50000000
C   126.38000000  12.56780466  1.50000000
C   126.38000000  15.02731681  1.50000000
C   126.38000000  17.48682895  1.50000000
C   126.38000000  19.94634110  1.50000000
C   126.38000000  22.40585325  1.50000000
C   126.38000000  24.86536539  1.50000000
C   127.80000000  2.72975607  1.50000000
C   127.80000000  5.18926822  1.50000000
C   127.80000000  7.64878037  1.50000000
C   127.80000000  10.10829251  1.50000000
C   127.80000000  12.56780466  1.50000000
C   127.80000000  15.02731681  1.50000000
C   127.80000000  17.48682895  1.50000000
C   127.80000000  19.94634110  1.50000000
C   127.80000000  22.40585325  1.50000000
C   127.80000000  24.86536539  1.50000000
C   128.51000000  1.50000000  1.50000000
C   128.51000000  3.95951215  1.50000000
C   128.51000000  6.41902429  1.50000000
C   128.51000000  8.87853644  1.50000000
C   128.51000000  11.33804859  1.50000000
C   128.51000000  13.79756073  1.50000000
C   128.51000000  16.25707288  1.50000000
C   128.51000000  18.71658503  1.50000000
C   128.51000000  21.17609717  1.50000000
C   128.51000000  23.63560932  1.50000000
C   128.51000000  26.09512147  1.50000000
C   129.93000000  1.50000000  1.50000000
C   129.93000000  3.95951215  1.50000000
C   129.93000000  6.41902429  1.50000000
C   129.93000000  8.87853644  1.50000000
C   129.93000000  11.33804859  1.50000000
C   129.93000000  13.79756073  1.50000000
C   129.93000000  16.25707288  1.50000000
C   129.93000000  18.71658503  1.50000000
C   129.93000000  21.17609717  1.50000000
C   129.93000000  23.63560932  1.50000000
C   129.93000000  26.09512147  1.50000000
C   130.64000000  2.72975607  1.50000000
C   130.64000000  5.18926822  1.50000000
C   130.64000000  7.64878037  1.50000000
C   130.64000000  10.10829251  1.50000000
C   130.64000000  12.56780466  1.50000000
C   130.64000000  15.02731681  1.50000000
C   130.64000000  17.48682895  1.50000000
C   130.64000000  19.94634110  1.50000000
C   130.64000000  22.40585325  1.50000000
C   130.64000000  24.86536539  1.50000000
C   132.06000000  2.72975607  1.50000000
C   132.06000000  5.18926822  1.50000000
C   132.06000000  7.64878037  1.50000000
C   132.06000000  10.10829251  1.50000000
C   132.06000000  12.56780466  1.50000000
C   132.06000000  15.02731681  1.50000000
C   132.06000000  17.48682895  1.50000000
C   132.06000000  19.94634110  1.50000000
C   132.06000000  22.40585325  1.50000000
C   132.06000000  24.86536539  1.50000000
C   132.77000000  1.50000000  1.50000000
C   132.77000000  3.95951215  1.50000000
C   132.77000000  6.41902429  1.50000000
C   132.77000000  8.87853644  1.50000000
C   132.77000000  11.33804859  1.50000000
C   132.77000000  13.79756073  1.50000000
C   132.77000000  16.25707288  1.50000000
C   132.77000000  18.71658503  1.50000000
C   132.77000000  21.17609717  1.50000000
C   132.77000000  23.63560932  1.50000000
C   132.77000000  26.09512147  1.50000000
C   134.19000000  1.50000000  1.50000000
C   134.19000000  3.95951215  1.50000000
C   134.19000000  6.41902429  1.50000000
C   134.19000000  8.87853644  1.50000000
C   134.19000000  11.33804859  1.50000000
C   134.19000000  13.79756073  1.50000000
C   134.19000000  16.25707288  1.50000000
C   134.19000000  18.71658503  1.50000000
C   134.19000000  21.17609717  1.50000000
C   134.19000000  23.63560932  1.50000000
C   134.19000000  26.09512147  1.50000000
C   134.90000000  2.72975607  1.50000000
C   134.90000000  5.18926822  1.50000000
C   134.90000000  7.64878037  1.50000000
C   134.90000000  10.10829251  1.50000000
C   134.90000000  12.56780466  1.50000000
C   134.90000000  15.02731681  1.50000000
C   134.90000000  17.48682895  1.50000000
C   134.90000000  19.94634110  1.50000000
C   134.90000000  22.40585325  1.50000000
C   134.90000000  24.86536539  1.50000000
C   136.32000000  2.72975607  1.50000000
C   136.32000000  5.18926822  1.50000000
C   136.32000000  7.64878037  1.50000000
C   136.32000000  10.10829251  1.50000000
C   136.32000000  12.56780466  1.50000000
C   136.32000000  15.02731681  1.50000000
C   136.32000000  17.48682895  1.50000000
C   136.32000000  19.94634110  1.50000000
C   136.32000000  22.40585325  1.50000000
C   136.32000000  24.86536539  1.50000000
C   137.03000000  1.50000000  1.50000000
C   137.03000000  3.95951215  1.50000000
C   137.03000000  6.41902429  1.50000000
C   137.03000000  8.87853644  1.50000000
C   137.03000000  11.33804859  1.50000000
C   137.03000000  13.79756073  1.50000000
C   137.03000000  16.25707288  1.50000000
C   137.03000000  18.71658503  1.50000000
C   137.03000000  21.17609717  1.50000000
C   137.03000000  23.63560932  1.50000000
C   137.03000000  26.09512147  1.50000000
C   138.45000000  1.50000000  1.50000000
C   138.45000000  3.95951215  1.50000000
C   138.45000000  6.41902429  1.50000000
C   138.45000000  8.87853644  1.50000000
C   138.45000000  11.33804859  1.50000000
C   138.45000000  13.79756073  1.50000000
C   138.45000000  16.25707288  1.50000000
C   138.45000000  18.71658503  1.50000000
C   138.45000000  21.17609717  1.50000000
C   138.45000000  23.63560932  1.50000000
C   138.45000000  26.09512147  1.50000000
C   139.16000000  2.72975607  1.50000000
C   139.16000000  5.18926822  1.50000000
C   139.16000000  7.64878037  1.50000000
C   139.16000000  10.10829251  1.50000000
C   139.16000000  12.56780466  1.50000000
C   139.16000000  15.02731681  1.50000000
C   139.16000000  17.48682895  1.50000000
C   139.16000000  19.94634110  1.50000000
C   139.16000000  22.40585325  1.50000000
C   139.16000000  24.86536539  1.50000000
C   140.58000000  2.72975607  1.50000000
C   140.58000000  5.18926822  1.50000000
C   140.58000000  7.64878037  1.50000000
C   140.58000000  10.10829251  1.50000000
C   140.58000000  12.56780466  1.50000000
C   140.58000000  15.02731681  1.50000000
C   140.58000000  17.48682895  1.50000000
C   140.58000000  19.94634110  1.50000000
C   140.58000000  22.40585325  1.50000000
C   140.58000000  24.86536539  1.50000000
C   141.29000000  1.50000000  1.50000000
C   141.29000000  3.95951215  1.50000000
C   141.29000000  6.41902429  1.50000000
C   141.29000000  8.87853644  1.50000000
C   141.29000000  11.33804859  1.50000000
C   141.29000000  13.79756073  1.50000000
C   141.29000000  16.25707288  1.50000000
C   141.29000000  18.71658503  1.50000000
C   141.29000000  21.17609717  1.50000000
C   141.29000000  23.63560932  1.50000000
C   141.29000000  26.09512147  1.50000000
C   142.71000000  1.50000000  1.50000000
C   142.71000000  3.95951215  1.50000000
C   142.71000000  6.41902429  1.50000000
C   142.71000000  8.87853644  1.50000000
C   142.71000000  11.33804859  1.50000000
C   142.71000000  13.79756073  1.50000000
C   142.71000000  16.25707288  1.50000000
C   142.71000000  18.71658503  1.50000000
C   142.71000000  21.17609717  1.50000000
C   142.71000000  23.63560932  1.50000000
C   142.71000000  26.09512147  1.50000000
C   143.42000000  2.72975607  1.50000000
C   143.42000000  5.18926822  1.50000000
C   143.42000000  7.64878037  1.50000000
C   143.42000000  10.10829251  1.50000000
C   143.42000000  12.56780466  1.50000000
C   143.42000000  15.02731681  1.50000000
C   143.42000000  17.48682895  1.50000000
C   143.42000000  19.94634110  1.50000000
C   143.42000000  22.40585325  1.50000000
C   143.42000000  24.86536539  1.50000000
C   144.84000000  2.72975607  1.50000000
C   144.84000000  5.18926822  1.50000000
C   144.84000000  7.64878037  1.50000000
C   144.84000000  10.10829251  1.50000000
C   144.84000000  12.56780466  1.50000000
C   144.84000000  15.02731681  1.50000000
C   144.84000000  17.48682895  1.50000000
C   144.84000000  19.94634110  1.50000000
C   144.84000000  22.40585325  1.50000000
C   144.84000000  24.86536539  1.50000000
C   145.55000000  1.50000000  1.50000000
C   145.55000000  3.95951215  1.50000000
C   145.55000000  6.41902429  1.50000000
C   145.55000000  8.87853644  1.50000000
C   145.55000000  11.33804859  1.50000000
C   145.55000000  13.79756073  1.50000000
C   145.55000000  16.25707288  1.50000000
C   145.55000000  18.71658503  1.50000000
C   145.55000000  21.17609717  1.50000000
C   145.55000000  23.63560932  1.50000000
C   145.55000000  26.09512147  1.50000000
C   146.97000000  1.50000000  1.50000000
C   146.97000000  3.95951215  1.50000000
C   146.97000000  6.41902429  1.50000000
C   146.97000000  8.87853644  1.50000000
C   146.97000000  11.33804859  1.50000000
C   146.97000000  13.79756073  1.50000000
C   146.97000000  16.25707288  1.50000000
C   146.97000000  18.71658503  1.50000000
C   146.97000000  21.17609717  1.50000000
C   146.97000000  23.63560932  1.50000000
C   146.97000000  26.09512147  1.50000000
C   147.68000000  2.72975607  1.50000000
C   147.68000000  5.18926822  1.50000000
C   147.68000000  7.64878037  1.50000000
C   147.68000000  10.10829251  1.50000000
C   147.68000000  12.56780466  1.50000000
C   147.68000000  15.02731681  1.50000000
C   147.68000000  17.48682895  1.50000000
C   147.68000000  19.94634110  1.50000000
C   147.68000000  22.40585325  1.50000000
C   147.68000000  24.86536539  1.50000000
C   149.10000000  2.72975607  1.50000000
C   149.10000000  5.18926822  1.50000000
C   149.10000000  7.64878037  1.50000000
C   149.10000000  10.10829251  1.50000000
C   149.10000000  12.56780466  1.50000000
C   149.10000000  15.02731681  1.50000000
C   149.10000000  17.48682895  1.50000000
C   149.10000000  19.94634110  1.50000000
C   149.10000000  22.40585325  1.50000000
C   149.10000000  24.86536539  1.50000000
C   149.81000000  1.50000000  1.50000000
C   149.81000000  3.95951215  1.50000000
C   149.81000000  6.41902429  1.50000000
C   149.81000000  8.87853644  1.50000000
C   149.81000000  11.33804859  1.50000000
C   149.81000000  13.79756073  1.50000000
C   149.81000000  16.25707288  1.50000000
C   149.81000000  18.71658503  1.50000000
C   149.81000000  21.17609717  1.50000000
C   149.81000000  23.63560932  1.50000000
C   149.81000000  26.09512147  1.50000000
C   151.23000000  1.50000000  1.50000000
C   151.23000000  3.95951215  1.50000000
C   151.23000000  6.41902429  1.50000000
C   151.23000000  8.87853644  1.50000000
C   151.23000000  11.33804859  1.50000000
C   151.23000000  13.79756073  1.50000000
C   151.23000000  16.25707288  1.50000000
C   151.23000000  18.71658503  1.50000000
C   151.23000000  21.17609717  1.50000000
C   151.23000000  23.63560932  1.50000000
C   151.23000000  26.09512147  1.50000000
C   151.94000000  2.72975607  1.50000000
C   151.94000000  5.18926822  1.50000000
C   151.94000000  7.64878037  1.50000000
C   151.94000000  10.10829251  1.50000000
C   151.94000000  12.56780466  1.50000000
C   151.94000000  15.02731681  1.50000000
C   151.94000000  17.48682895  1.50000000
C   151.94000000  19.94634110  1.50000000
C   151.94000000  22.40585325  1.50000000
C   151.94000000  24.86536539  1.50000000
C   153.36000000  2.72975607  1.50000000
C   153.36000000  5.18926822  1.50000000
C   153.36000000  7.64878037  1.50000000
C   153.36000000  10.10829251  1.50000000
C   153.36000000  12.56780466  1.50000000
C   153.36000000  15.02731681  1.50000000
C   153.36000000  17.48682895  1.50000000
C   153.36000000  19.94634110  1.50000000
C   153.36000000  22.40585325  1.50000000
C   153.36000000  24.86536539  1.50000000
C   154.07000000  1.50000000  1.50000000
C   154.07000000  3.95951215  1.50000000
C   154.07000000  6.41902429  1.50000000
C   154.07000000  8.87853644  1.50000000
C   154.07000000  11.33804859  1.50000000
C   154.07000000  13.79756073  1.50000000
C   154.07000000  16.25707288  1.50000000
C   154.07000000  18.71658503  1.50000000
C   154.07000000  21.17609717  1.50000000
C   154.07000000  23.63560932  1.50000000
C   154.07000000  26.09512147  1.50000000
C   155.49000000  1.50000000  1.50000000
C   155.49000000  3.95951215  1.50000000
C   155.49000000  6.41902429  1.50000000
C   155.49000000  8.87853644  1.50000000
C   155.49000000  11.33804859  1.50000000
C   155.49000000  13.79756073  1.50000000
C   155.49000000  16.25707288  1.50000000
C   155.49000000  18.71658503  1.50000000
C   155.49000000  21.17609717  1.50000000
C   155.49000000  23.63560932  1.50000000
C   155.49000000  26.09512147  1.50000000
C   156.20000000  2.72975607  1.50000000
C   156.20000000  5.18926822  1.50000000
C   156.20000000  7.64878037  1.50000000
C   156.20000000  10.10829251  1.50000000
C   156.20000000  12.56780466  1.50000000
C   156.20000000  15.02731681  1.50000000
C   156.20000000  17.48682895  1.50000000
C   156.20000000  19.94634110  1.50000000
C   156.20000000  22.40585325  1.50000000
C   156.20000000  24.86536539  1.50000000
C   157.62000000  2.72975607  1.50000000
C   157.62000000  5.18926822  1.50000000
C   157.62000000  7.64878037  1.50000000
C   157.62000000  10.10829251  1.50000000
C   157.62000000  12.56780466  1.50000000
C   157.62000000  15.02731681  1.50000000
C   157.62000000  17.48682895  1.50000000
C   157.62000000  19.94634110  1.50000000
C   157.62000000  22.40585325  1.50000000
C   157.62000000  24.86536539  1.50000000
C   158.33000000  1.50000000  1.50000000
C   158.33000000  3.95951215  1.50000000
C   158.33000000  6.41902429  1.50000000
C   158.33000000  8.87853644  1.50000000
C   158.33000000  11.33804859  1.50000000
C   158.33000000  13.79756073  1.50000000
C   158.33000000  16.25707288  1.50000000
C   158.33000000  18.71658503  1.50000000
C   158.33000000  21.17609717  1.50000000
C   158.33000000  23.63560932  1.50000000
C   158.33000000  26.09512147  1.50000000
C   159.75000000  1.50000000  1.50000000
C   159.75000000  3.95951215  1.50000000
C   159.75000000  6.41902429  1.50000000
C   159.75000000  8.87853644  1.50000000
C   159.75000000  11.33804859  1.50000000
C   159.75000000  13.79756073  1.50000000
C   159.75000000  16.25707288  1.50000000
C   159.75000000  18.71658503  1.50000000
C   159.75000000  21.17609717  1.50000000
C   159.75000000  23.63560932  1.50000000
C   159.75000000  26.09512147  1.50000000
C   160.46000000  2.72975607  1.50000000
C   160.46000000  5.18926822  1.50000000
C   160.46000000  7.64878037  1.50000000
C   160.46000000  10.10829251  1.50000000
C   160.46000000  12.56780466  1.50000000
C   160.46000000  15.02731681  1.50000000
C   160.46000000  17.48682895  1.50000000
C   160.46000000  19.94634110  1.50000000
C   160.46000000  22.40585325  1.50000000
C   160.46000000  24.86536539  1.50000000
C   161.88000000  2.72975607  1.50000000
C   161.88000000  5.18926822  1.50000000
C   161.88000000  7.64878037  1.50000000
C   161.88000000  10.10829251  1.50000000
C   161.88000000  12.56780466  1.50000000
C   161.88000000  15.02731681  1.50000000
C   161.88000000  17.48682895  1.50000000
C   161.88000000  19.94634110  1.50000000
C   161.88000000  22.40585325  1.50000000
C   161.88000000  24.86536539  1.50000000
C   162.59000000  1.50000000  1.50000000
C   162.59000000  3.95951215  1.50000000
C   162.59000000  6.41902429  1.50000000
C   162.59000000  8.87853644  1.50000000
C   162.59000000  11.33804859  1.50000000
C   162.59000000  13.79756073  1.50000000
C   162.59000000  16.25707288  1.50000000
C   162.59000000  18.71658503  1.50000000
C   162.59000000  21.17609717  1.50000000
C   162.59000000  23.63560932  1.50000000
C   162.59000000  26.09512147  1.50000000
C   164.01000000  1.50000000  1.50000000
C   164.01000000  3.95951215  1.50000000
C   164.01000000  6.41902429  1.50000000
C   164.01000000  8.87853644  1.50000000
C   164.01000000  11.33804859  1.50000000
C   164.01000000  13.79756073  1.50000000
C   164.01000000  16.25707288  1.50000000
C   164.01000000  18.71658503  1.50000000
C   164.01000000  21.17609717  1.50000000
C   164.01000000  23.63560932  1.50000000
C   164.01000000  26.09512147  1.50000000
C   164.72000000  2.72975607  1.50000000
C   164.72000000  5.18926822  1.50000000
C   164.72000000  7.64878037  1.50000000
C   164.72000000  10.10829251  1.50000000
C   164.72000000  12.56780466  1.50000000
C   164.72000000  15.02731681  1.50000000
C   164.72000000  17.48682895  1.50000000
C   164.72000000  19.94634110  1.50000000
C   164.72000000  22.40585325  1.50000000
C   164.72000000  24.86536539  1.50000000
C   166.14000000  2.72975607  1.50000000
C   166.14000000  5.18926822  1.50000000
C   166.14000000  7.64878037  1.50000000
C   166.14000000  10.10829251  1.50000000
C   166.14000000  12.56780466  1.50000000
C   166.14000000  15.02731681  1.50000000
C   166.14000000  17.48682895  1.50000000
C   166.14000000  19.94634110  1.50000000
C   166.14000000  22.40585325  1.50000000
C   166.14000000  24.86536539  1.50000000
C   166.85000000  1.50000000  1.50000000
C   166.85000000  3.95951215  1.50000000
C   166.85000000  6.41902429  1.50000000
C   166.85000000  8.87853644  1.50000000
C   166.85000000  11.33804859  1.50000000
C   166.85000000  13.79756073  1.50000000
C   166.85000000  16.25707288  1.50000000
C   166.85000000  18.71658503  1.50000000
C   166.85000000  21.17609717  1.50000000
C   166.85000000  23.63560932  1.50000000
C   166.85000000  26.09512147  1.50000000
C   168.27000000  1.50000000  1.50000000
C   168.27000000  3.95951215  1.50000000
C   168.27000000  6.41902429  1.50000000
C   168.27000000  8.87853644  1.50000000
C   168.27000000  11.33804859  1.50000000
C   168.27000000  13.79756073  1.50000000
C   168.27000000  16.25707288  1.50000000
C   168.27000000  18.71658503  1.50000000
C   168.27000000  21.17609717  1.50000000
C   168.27000000  23.63560932  1.50000000
C   168.27000000  26.09512147  1.50000000
C   168.98000000  2.72975607  1.50000000
C   168.98000000  5.18926822  1.50000000
C   168.98000000  7.64878037  1.50000000
C   168.98000000  10.10829251  1.50000000
C   168.98000000  12.56780466  1.50000000
C   168.98000000  15.02731681  1.50000000
C   168.98000000  17.48682895  1.50000000
C   168.98000000  19.94634110  1.50000000
C   168.98000000  22.40585325  1.50000000
C   168.98000000  24.86536539  1.50000000
C   170.40000000  2.72975607  1.50000000
C   170.40000000  5.18926822  1.50000000
C   170.40000000  7.64878037  1.50000000
C   170.40000000  10.10829251  1.50000000
C   170.40000000  12.56780466  1.50000000
C   170.40000000  15.02731681  1.50000000
C   170.40000000  17.48682895  1.50000000
C   170.40000000  19.94634110  1.50000000
C   170.40000000  22.40585325  1.50000000
C   170.40000000  24.86536539  1.50000000
C   171.11000000  1.50000000  1.50000000
C   171.11000000  3.95951215  1.50000000
C   171.11000000  6.41902429  1.50000000
C   171.11000000  8.87853644  1.50000000
C   171.11000000  11.33804859  1.50000000
C   171.11000000  13.79756073  1.50000000
C   171.11000000  16.25707288  1.50000000
C   171.11000000  18.71658503  1.50000000
C   171.11000000  21.17609717  1.50000000
C   171.11000000  23.63560932  1.50000000
C   171.11000000  26.09512147  1.50000000
C   172.53000000  1.50000000  1.50000000
C   172.53000000  3.95951215  1.50000000
C   172.53000000  6.41902429  1.50000000
C   172.53000000  8.87853644  1.50000000
C   172.53000000  11.33804859  1.50000000
C   172.53000000  13.79756073  1.50000000
C   172.53000000  16.25707288  1.50000000
C   172.53000000  18.71658503  1.50000000
C   172.53000000  21.17609717  1.50000000
C   172.53000000  23.63560932  1.50000000
C   172.53000000  26.09512147  1.50000000
C   173.24000000  2.72975607  1.50000000
C   173.24000000  5.18926822  1.50000000
C   173.24000000  7.64878037  1.50000000
C   173.24000000  10.10829251  1.50000000
C   173.24000000  12.56780466  1.50000000
C   173.24000000  15.02731681  1.50000000
C   173.24000000  17.48682895  1.50000000
C   173.24000000  19.94634110  1.50000000
C   173.24000000  22.40585325  1.50000000
C   173.24000000  24.86536539  1.50000000
C   174.66000000  2.72975607  1.50000000
C   174.66000000  5.18926822  1.50000000
C   174.66000000  7.64878037  1.50000000
C   174.66000000  10.10829251  1.50000000
C   174.66000000  12.56780466  1.50000000
C   174.66000000  15.02731681  1.50000000
C   174.66000000  17.48682895  1.50000000
C   174.66000000  19.94634110  1.50000000
C   174.66000000  22.40585325  1.50000000
C   174.66000000  24.86536539  1.50000000
C   175.37000000  1.50000000  1.50000000
C   175.37000000  3.95951215  1.50000000
C   175.37000000  6.41902429  1.50000000
C   175.37000000  8.87853644  1.50000000
C   175.37000000  11.33804859  1.50000000
C   175.37000000  13.79756073  1.50000000
C   175.37000000  16.25707288  1.50000000
C   175.37000000  18.71658503  1.50000000
C   175.37000000  21.17609717  1.50000000
C   175.37000000  23.63560932  1.50000000
C   175.37000000  26.09512147  1.50000000
C   176.79000000  1.50000000  1.50000000
C   176.79000000  3.95951215  1.50000000
C   176.79000000  6.41902429  1.50000000
C   176.79000000  8.87853644  1.50000000
C   176.79000000  11.33804859  1.50000000
C   176.79000000  13.79756073  1.50000000
C   176.79000000  16.25707288  1.50000000
C   176.79000000  18.71658503  1.50000000
C   176.79000000  21.17609717  1.50000000
C   176.79000000  23.63560932  1.50000000
C   176.79000000  26.09512147  1.50000000
C   177.50000000  2.72975607  1.50000000
C   177.50000000  5.18926822  1.50000000
C   177.50000000  7.64878037  1.50000000
C   177.50000000  10.10829251  1.50000000
C   177.50000000  12.56780466  1.50000000
C   177.50000000  15.02731681  1.50000000
C   177.50000000  17.48682895  1.50000000
C   177.50000000  19.94634110  1.50000000
C   177.50000000  22.40585325  1.50000000
C   177.50000000  24.86536539  1.50000000
C   178.92000000  2.72975607  1.50000000
C   178.92000000  5.18926822  1.50000000
C   178.92000000  7.64878037  1.50000000
C   178.92000000  10.10829251  1.50000000
C   178.92000000  12.56780466  1.50000000
C   178.92000000  15.02731681  1.50000000
C   178.92000000  17.48682895  1.50000000
C   178.92000000  19.94634110  1.50000000
C   178.92000000  22.40585325  1.50000000
C   178.92000000  24.86536539  1.50000000
C   179.63000000  1.50000000  1.50000000
C   179.63000000  3.95951215  1.50000000
C   179.63000000  6.41902429  1.50000000
C   179.63000000  8.87853644  1.50000000
C   179.63000000  11.33804859  1.50000000
C   179.63000000  13.79756073  1.50000000
C   179.63000000  16.25707288  1.50000000
C   179.63000000  18.71658503  1.50000000
C   179.63000000  21.17609717  1.50000000
C   179.63000000  23.63560932  1.50000000
C   179.63000000  26.09512147  1.50000000
C   181.05000000  1.50000000  1.50000000
C   181.05000000  3.95951215  1.50000000
C   181.05000000  6.41902429  1.50000000
C   181.05000000  8.87853644  1.50000000
C   181.05000000  11.33804859  1.50000000
C   181.05000000  13.79756073  1.50000000
C   181.05000000  16.25707288  1.50000000
C   181.05000000  18.71658503  1.50000000
C   181.05000000  21.17609717  1.50000000
C   181.05000000  23.63560932  1.50000000
C   181.05000000  26.09512147  1.50000000
C   181.76000000  2.72975607  1.50000000
C   181.76000000  5.18926822  1.50000000
C   181.76000000  7.64878037  1.50000000
C   181.76000000  10.10829251  1.50000000
C   181.76000000  12.56780466  1.50000000
C   181.76000000  15.02731681  1.50000000
C   181.76000000  17.48682895  1.50000000
C   181.76000000  19.94634110  1.50000000
C   181.76000000  22.40585325  1.50000000
C   181.76000000  24.86536539  1.50000000
C   183.18000000  2.72975607  1.50000000
C   183.18000000  5.18926822  1.50000000
C   183.18000000  7.64878037  1.50000000
C   183.18000000  10.10829251  1.50000000
C   183.18000000  12.56780466  1.50000000
C   183.18000000  15.02731681  1.50000000
C   183.18000000  17.48682895  1.50000000
C   183.18000000  19.94634110  1.50000000
C   183.18000000  22.40585325  1.50000000
C   183.18000000  24.86536539  1.50000000
C   183.89000000  1.50000000  1.50000000
C   183.89000000  3.95951215  1.50000000
C   183.89000000  6.41902429  1.50000000
C   183.89000000  8.87853644  1.50000000
C   183.89000000  11.33804859  1.50000000
C   183.89000000  13.79756073  1.50000000
C   183.89000000  16.25707288  1.50000000
C   183.89000000  18.71658503  1.50000000
C   183.89000000  21.17609717  1.50000000
C   183.89000000  23.63560932  1.50000000
C   183.89000000  26.09512147  1.50000000
C   185.31000000  1.50000000  1.50000000
C   185.31000000  3.95951215  1.50000000
C   185.31000000  6.41902429  1.50000000
C   185.31000000  8.87853644  1.50000000
C   185.31000000  11.33804859  1.50000000
C   185.31000000  13.79756073  1.50000000
C   185.31000000  16.25707288  1.50000000
C   185.31000000  18.71658503  1.50000000
C   185.31000000  21.17609717  1.50000000
C   185.31000000  23.63560932  1.50000000
C   185.31000000  26.09512147  1.50000000
C   186.02000000  2.72975607  1.50000000
C   186.02000000  5.18926822  1.50000000
C   186.02000000  7.64878037  1.50000000
C   186.02000000  10.10829251  1.50000000
C   186.02000000  12.56780466  1.50000000
C   186.02000000  15.02731681  1.50000000
C   186.02000000  17.48682895  1.50000000
C   186.02000000  19.94634110  1.50000000
C   186.02000000  22.40585325  1.50000000
C   186.02000000  24.86536539  1.50000000
C   187.44000000  2.72975607  1.50000000
C   187.44000000  5.18926822  1.50000000
C   187.44000000  7.64878037  1.50000000
C   187.44000000  10.10829251  1.50000000
C   187.44000000  12.56780466  1.50000000
C   187.44000000  15.02731681  1.50000000
C   187.44000000  17.48682895  1.50000000
C   187.44000000  19.94634110  1.50000000
C   187.44000000  22.40585325  1.50000000
C   187.44000000  24.86536539  1.50000000
C   188.15000000  1.50000000  1.50000000
C   188.15000000  3.95951215  1.50000000
C   188.15000000  6.41902429  1.50000000
C   188.15000000  8.87853644  1.50000000
C   188.15000000  11.33804859  1.50000000
C   188.15000000  13.79756073  1.50000000
C   188.15000000  16.25707288  1.50000000
C   188.15000000  18.71658503  1.50000000
C   188.15000000  21.17609717  1.50000000
C   188.15000000  23.63560932  1.50000000
C   188.15000000  26.09512147  1.50000000
C   189.57000000  1.50000000  1.50000000
C   189.57000000  3.95951215  1.50000000
C   189.57000000  6.41902429  1.50000000
C   189.57000000  8.87853644  1.50000000
C   189.57000000  11.33804859  1.50000000
C   189.57000000  13.79756073  1.50000000
C   189.57000000  16.25707288  1.50000000
C   189.57000000  18.71658503  1.50000000
C   189.57000000  21.17609717  1.50000000
C   189.57000000  23.63560932  1.50000000
C   189.57000000  26.09512147  1.50000000
C   190.28000000  2.72975607  1.50000000
C   190.28000000  5.18926822  1.50000000
C   190.28000000  7.64878037  1.50000000
C   190.28000000  10.10829251  1.50000000
C   190.28000000  12.56780466  1.50000000
C   190.28000000  15.02731681  1.50000000
C   190.28000000  17.48682895  1.50000000
C   190.28000000  19.94634110  1.50000000
C   190.28000000  22.40585325  1.50000000
C   190.28000000  24.86536539  1.50000000
C   191.70000000  2.72975607  1.50000000
C   191.70000000  5.18926822  1.50000000
C   191.70000000  7.64878037  1.50000000
C   191.70000000  10.10829251  1.50000000
C   191.70000000  12.56780466  1.50000000
C   191.70000000  15.02731681  1.50000000
C   191.70000000  17.48682895  1.50000000
C   191.70000000  19.94634110  1.50000000
C   191.70000000  22.40585325  1.50000000
C   191.70000000  24.86536539  1.50000000
C   192.41000000  1.50000000  1.50000000
C   192.41000000  3.95951215  1.50000000
C   192.41000000  6.41902429  1.50000000
C   192.41000000  8.87853644  1.50000000
C   192.41000000  11.33804859  1.50000000
C   192.41000000  13.79756073  1.50000000
C   192.41000000  16.25707288  1.50000000
C   192.41000000  18.71658503  1.50000000
C   192.41000000  21.17609717  1.50000000
C   192.41000000  23.63560932  1.50000000
C   192.41000000  26.09512147  1.50000000
C   193.83000000  1.50000000  1.50000000
C   193.83000000  3.95951215  1.50000000
C   193.83000000  6.41902429  1.50000000
C   193.83000000  8.87853644  1.50000000
C   193.83000000  11.33804859  1.50000000
C   193.83000000  13.79756073  1.50000000
C   193.83000000  16.25707288  1.50000000
C   193.83000000  18.71658503  1.50000000
C   193.83000000  21.17609717  1.50000000
C   193.83000000  23.63560932  1.50000000
C   193.83000000  26.09512147  1.50000000
C   194.54000000  2.72975607  1.50000000
C   194.54000000  5.18926822  1.50000000
C   194.54000000  7.64878037  1.50000000
C   194.54000000  10.10829251  1.50000000
C   194.54000000  12.56780466  1.50000000
C   194.54000000  15.02731681  1.50000000
C   194.54000000  17.48682895  1.50000000
C   194.54000000  19.94634110  1.50000000
C   194.54000000  22.40585325  1.50000000
C   194.54000000  24.86536539  1.50000000
C   195.96000000  2.72975607  1.50000000
C   195.96000000  5.18926822  1.50000000
C   195.96000000  7.64878037  1.50000000
C   195.96000000  10.10829251  1.50000000
C   195.96000000  12.56780466  1.50000000
C   195.96000000  15.02731681  1.50000000
C   195.96000000  17.48682895  1.50000000
C   195.96000000  19.94634110  1.50000000
C   195.96000000  22.40585325  1.50000000
C   195.96000000  24.86536539  1.50000000
C   196.67000000  1.50000000  1.50000000
C   196.67000000  3.95951215  1.50000000
C   196.67000000  6.41902429  1.50000000
C   196.67000000  8.87853644  1.50000000
C   196.67000000  11.33804859  1.50000000
C   196.67000000  13.79756073  1.50000000
C   196.67000000  16.25707288  1.50000000
C   196.67000000  18.71658503  1.50000000
C   196.67000000  21.17609717  1.50000000
C   196.67000000  23.63560932  1.50000000
C   196.67000000  26.09512147  1.50000000
C   198.09000000  1.50000000  1.50000000
C   198.09000000  3.95951215  1.50000000
C   198.09000000  6.41902429  1.50000000
C   198.09000000  8.87853644  1.50000000
C   198.09000000  11.33804859  1.50000000
C   198.09000000  13.79756073  1.50000000
C   198.09000000  16.25707288  1.50000000
C   198.09000000  18.71658503  1.50000000
C   198.09000000  21.17609717  1.50000000
C   198.09000000  23.63560932  1.50000000
C   198.09000000  26.09512147  1.50000000
C   198.80000000  2.72975607  1.50000000
C   198.80000000  5.18926822  1.50000000
C   198.80000000  7.64878037  1.50000000
C   198.80000000  10.10829251  1.50000000
C   198.80000000  12.56780466  1.50000000
C   198.80000000  15.02731681  1.50000000
C   198.80000000  17.48682895  1.50000000
C   198.80000000  19.94634110  1.50000000
C   198.80000000  22.40585325  1.50000000
C   198.80000000  24.86536539  1.50000000
C   200.22000000  2.72975607  1.50000000
C   200.22000000  5.18926822  1.50000000
C   200.22000000  7.64878037  1.50000000
C   200.22000000  10.10829251  1.50000000
C   200.22000000  12.56780466  1.50000000
C   200.22000000  15.02731681  1.50000000
C   200.22000000  17.48682895  1.50000000
C   200.22000000  19.94634110  1.50000000
C   200.22000000  22.40585325  1.50000000
C   200.22000000  24.86536539  1.50000000
C   200.93000000  1.50000000  1.50000000
C   200.93000000  3.95951215  1.50000000
C   200.93000000  6.41902429  1.50000000
C   200.93000000  8.87853644  1.50000000
C   200.93000000  11.33804859  1.50000000
C   200.93000000  13.79756073  1.50000000
C   200.93000000  16.25707288  1.50000000
C   200.93000000  18.71658503  1.50000000
C   200.93000000  21.17609717  1.50000000
C   200.93000000  23.63560932  1.50000000
C   200.93000000  26.09512147  1.50000000
C   202.35000000  1.50000000  1.50000000
C   202.35000000  3.95951215  1.50000000
C   202.35000000  6.41902429  1.50000000
C   202.35000000  8.87853644  1.50000000
C   202.35000000  11.33804859  1.50000000
C   202.35000000  13.79756073  1.50000000
C   202.35000000  16.25707288  1.50000000
C   202.35000000  18.71658503  1.50000000
C   202.35000000  21.17609717  1.50000000
C   202.35000000  23.63560932  1.50000000
C   202.35000000  26.09512147  1.50000000
C   203.06000000  2.72975607  1.50000000
C   203.06000000  5.18926822  1.50000000
C   203.06000000  7.64878037  1.50000000
C   203.06000000  10.10829251  1.50000000
C   203.06000000  12.56780466  1.50000000
C   203.06000000  15.02731681  1.50000000
C   203.06000000  17.48682895  1.50000000
C   203.06000000  19.94634110  1.50000000
C   203.06000000  22.40585325  1.50000000
C   203.06000000  24.86536539  1.50000000
C   204.48000000  2.72975607  1.50000000
C   204.48000000  5.18926822  1.50000000
C   204.48000000  7.64878037  1.50000000
C   204.48000000  10.10829251  1.50000000
C   204.48000000  12.56780466  1.50000000
C   204.48000000  15.02731681  1.50000000
C   204.48000000  17.48682895  1.50000000
C   204.48000000  19.94634110  1.50000000
C   204.48000000  22.40585325  1.50000000
C   204.48000000  24.86536539  1.50000000
C   205.19000000  1.50000000  1.50000000
C   205.19000000  3.95951215  1.50000000
C   205.19000000  6.41902429  1.50000000
C   205.19000000  8.87853644  1.50000000
C   205.19000000  11.33804859  1.50000000
C   205.19000000  13.79756073  1.50000000
C   205.19000000  16.25707288  1.50000000
C   205.19000000  18.71658503  1.50000000
C   205.19000000  21.17609717  1.50000000
C   205.19000000  23.63560932  1.50000000
C   205.19000000  26.09512147  1.50000000
C   206.61000000  1.50000000  1.50000000
C   206.61000000  3.95951215  1.50000000
C   206.61000000  6.41902429  1.50000000
C   206.61000000  8.87853644  1.50000000
C   206.61000000  11.33804859  1.50000000
C   206.61000000  13.79756073  1.50000000
C   206.61000000  16.25707288  1.50000000
C   206.61000000  18.71658503  1.50000000
C   206.61000000  21.17609717  1.50000000
C   206.61000000  23.63560932  1.50000000
C   206.61000000  26.09512147  1.50000000
C   207.32000000  2.72975607  1.50000000
C   207.32000000  5.18926822  1.50000000
C   207.32000000  7.64878037  1.50000000
C   207.32000000  10.10829251  1.50000000
C   207.32000000  12.56780466  1.50000000
C   207.32000000  15.02731681  1.50000000
C   207.32000000  17.48682895  1.50000000
C   207.32000000  19.94634110  1.50000000
C   207.32000000  22.40585325  1.50000000
C   207.32000000  24.86536539  1.50000000
C   208.74000000  2.72975607  1.50000000
C   208.74000000  5.18926822  1.50000000
C   208.74000000  7.64878037  1.50000000
C   208.74000000  10.10829251  1.50000000
C   208.74000000  12.56780466  1.50000000
C   208.74000000  15.02731681  1.50000000
C   208.74000000  17.48682895  1.50000000
C   208.74000000  19.94634110  1.50000000
C   208.74000000  22.40585325  1.50000000
C   208.74000000  24.86536539  1.50000000
C   209.45000000  1.50000000  1.50000000
C   209.45000000  3.95951215  1.50000000
C   209.45000000  6.41902429  1.50000000
C   209.45000000  8.87853644  1.50000000
C   209.45000000  11.33804859  1.50000000
C   209.45000000  13.79756073  1.50000000
C   209.45000000  16.25707288  1.50000000
C   209.45000000  18.71658503  1.50000000
C   209.45000000  21.17609717  1.50000000
C   209.45000000  23.63560932  1.50000000
C   209.45000000  26.09512147  1.50000000
C   210.87000000  1.50000000  1.50000000
C   210.87000000  3.95951215  1.50000000
C   210.87000000  6.41902429  1.50000000
C   210.87000000  8.87853644  1.50000000
C   210.87000000  11.33804859  1.50000000
C   210.87000000  13.79756073  1.50000000
C   210.87000000  16.25707288  1.50000000
C   210.87000000  18.71658503  1.50000000
C   210.87000000  21.17609717  1.50000000
C   210.87000000  23.63560932  1.50000000
C   210.87000000  26.09512147  1.50000000
C   211.58000000  2.72975607  1.50000000
C   211.58000000  5.18926822  1.50000000
C   211.58000000  7.64878037  1.50000000
C   211.58000000  10.10829251  1.50000000
C   211.58000000  12.56780466  1.50000000
C   211.58000000  15.02731681  1.50000000
C   211.58000000  17.48682895  1.50000000
C   211.58000000  19.94634110  1.50000000
C   211.58000000  22.40585325  1.50000000
C   211.58000000  24.86536539  1.50000000
C   213.00000000  2.72975607  1.50000000
C   213.00000000  5.18926822  1.50000000
C   213.00000000  7.64878037  1.50000000
C   213.00000000  10.10829251  1.50000000
C   213.00000000  12.56780466  1.50000000
C   213.00000000  15.02731681  1.50000000
C   213.00000000  17.48682895  1.50000000
C   213.00000000  19.94634110  1.50000000
C   213.00000000  22.40585325  1.50000000
C   213.00000000  24.86536539  1.50000000
C   213.71000000  1.50000000  1.50000000
C   213.71000000  3.95951215  1.50000000
C   213.71000000  6.41902429  1.50000000
C   213.71000000  8.87853644  1.50000000
C   213.71000000  11.33804859  1.50000000
C   213.71000000  13.79756073  1.50000000
C   213.71000000  16.25707288  1.50000000
C   213.71000000  18.71658503  1.50000000
C   213.71000000  21.17609717  1.50000000
C   213.71000000  23.63560932  1.50000000
C   213.71000000  26.09512147  1.50000000
C   215.13000000  1.50000000  1.50000000
C   215.13000000  3.95951215  1.50000000
C   215.13000000  6.41902429  1.50000000
C   215.13000000  8.87853644  1.50000000
C   215.13000000  11.33804859  1.50000000
C   215.13000000  13.79756073  1.50000000
C   215.13000000  16.25707288  1.50000000
C   215.13000000  18.71658503  1.50000000
C   215.13000000  21.17609717  1.50000000
C   215.13000000  23.63560932  1.50000000
C   215.13000000  26.09512147  1.50000000
C   215.84000000  2.72975607  1.50000000
C   215.84000000  5.18926822  1.50000000
C   215.84000000  7.64878037  1.50000000
C   215.84000000  10.10829251  1.50000000
C   215.84000000  12.56780466  1.50000000
C   215.84000000  15.02731681  1.50000000
C   215.84000000  17.48682895  1.50000000
C   215.84000000  19.94634110  1.50000000
C   215.84000000  22.40585325  1.50000000
C   215.84000000  24.86536539  1.50000000
C   217.26000000  2.72975607  1.50000000
C   217.26000000  5.18926822  1.50000000
C   217.26000000  7.64878037  1.50000000
C   217.26000000  10.10829251  1.50000000
C   217.26000000  12.56780466  1.50000000
C   217.26000000  15.02731681  1.50000000
C   217.26000000  17.48682895  1.50000000
C   217.26000000  19.94634110  1.50000000
C   217.26000000  22.40585325  1.50000000
C   217.26000000  24.86536539  1.50000000
C   217.97000000  1.50000000  1.50000000
C   217.97000000  3.95951215  1.50000000
C   217.97000000  6.41902429  1.50000000
C   217.97000000  8.87853644  1.50000000
C   217.97000000  11.33804859  1.50000000
C   217.97000000  13.79756073  1.50000000
C   217.97000000  16.25707288  1.50000000
C   217.97000000  18.71658503  1.50000000
C   217.97000000  21.17609717  1.50000000
C   217.97000000  23.63560932  1.50000000
C   217.97000000  26.09512147  1.50000000
C   219.39000000  1.50000000  1.50000000
C   219.39000000  3.95951215  1.50000000
C   219.39000000  6.41902429  1.50000000
C   219.39000000  8.87853644  1.50000000
C   219.39000000  11.33804859  1.50000000
C   219.39000000  13.79756073  1.50000000
C   219.39000000  16.25707288  1.50000000
C   219.39000000  18.71658503  1.50000000
C   219.39000000  21.17609717  1.50000000
C   219.39000000  23.63560932  1.50000000
C   219.39000000  26.09512147  1.50000000
C   220.10000000  2.72975607  1.50000000
C   220.10000000  5.18926822  1.50000000
C   220.10000000  7.64878037  1.50000000
C   220.10000000  10.10829251  1.50000000
C   220.10000000  12.56780466  1.50000000
C   220.10000000  15.02731681  1.50000000
C   220.10000000  17.48682895  1.50000000
C   220.10000000  19.94634110  1.50000000
C   220.10000000  22.40585325  1.50000000
C   220.10000000  24.86536539  1.50000000
C   221.52000000  2.72975607  1.50000000
C   221.52000000  5.18926822  1.50000000
C   221.52000000  7.64878037  1.50000000
C   221.52000000  10.10829251  1.50000000
C   221.52000000  12.56780466  1.50000000
C   221.52000000  15.02731681  1.50000000
C   221.52000000  17.48682895  1.50000000
C   221.52000000  19.94634110  1.50000000
C   221.52000000  22.40585325  1.50000000
C   221.52000000  24.86536539  1.50000000
C   222.23000000  1.50000000  1.50000000
C   222.23000000  3.95951215  1.50000000
C   222.23000000  6.41902429  1.50000000
C   222.23000000  8.87853644  1.50000000
C   222.23000000  11.33804859  1.50000000
C   222.23000000  13.79756073  1.50000000
C   222.23000000  16.25707288  1.50000000
C   222.23000000  18.71658503  1.50000000
C   222.23000000  21.17609717  1.50000000
C   222.23000000  23.63560932  1.50000000
C   222.23000000  26.09512147  1.50000000
C   223.65000000  1.50000000  1.50000000
C   223.65000000  3.95951215  1.50000000
C   223.65000000  6.41902429  1.50000000
C   223.65000000  8.87853644  1.50000000
C   223.65000000  11.33804859  1.50000000
C   223.65000000  13.79756073  1.50000000
C   223.65000000  16.25707288  1.50000000
C   223.65000000  18.71658503  1.50000000
C   223.65000000  21.17609717  1.50000000
C   223.65000000  23.63560932  1.50000000
C   223.65000000  26.09512147  1.50000000
C   224.36000000  2.72975607  1.50000000
C   224.36000000  5.18926822  1.50000000
C   224.36000000  7.64878037  1.50000000
C   224.36000000  10.10829251  1.50000000
C   224.36000000  12.56780466  1.50000000
C   224.36000000  15.02731681  1.50000000
C   224.36000000  17.48682895  1.50000000
C   224.36000000  19.94634110  1.50000000
C   224.36000000  22.40585325  1.50000000
C   224.36000000  24.86536539  1.50000000
C   225.78000000  2.72975607  1.50000000
C   225.78000000  5.18926822  1.50000000
C   225.78000000  7.64878037  1.50000000
C   225.78000000  10.10829251  1.50000000
C   225.78000000  12.56780466  1.50000000
C   225.78000000  15.02731681  1.50000000
C   225.78000000  17.48682895  1.50000000
C   225.78000000  19.94634110  1.50000000
C   225.78000000  22.40585325  1.50000000
C   225.78000000  24.86536539  1.50000000
C   226.49000000  1.50000000  1.50000000
C   226.49000000  3.95951215  1.50000000
C   226.49000000  6.41902429  1.50000000
C   226.49000000  8.87853644  1.50000000
C   226.49000000  11.33804859  1.50000000
C   226.49000000  13.79756073  1.50000000
C   226.49000000  16.25707288  1.50000000
C   226.49000000  18.71658503  1.50000000
C   226.49000000  21.17609717  1.50000000
C   226.49000000  23.63560932  1.50000000
C   226.49000000  26.09512147  1.50000000
C   227.91000000  1.50000000  1.50000000
C   227.91000000  3.95951215  1.50000000
C   227.91000000  6.41902429  1.50000000
C   227.91000000  8.87853644  1.50000000
C   227.91000000  11.33804859  1.50000000
C   227.91000000  13.79756073  1.50000000
C   227.91000000  16.25707288  1.50000000
C   227.91000000  18.71658503  1.50000000
C   227.91000000  21.17609717  1.50000000
C   227.91000000  23.63560932  1.50000000
C   227.91000000  26.09512147  1.50000000
C   228.62000000  2.72975607  1.50000000
C   228.62000000  5.18926822  1.50000000
C   228.62000000  7.64878037  1.50000000
C   228.62000000  10.10829251  1.50000000
C   228.62000000  12.56780466  1.50000000
C   228.62000000  15.02731681  1.50000000
C   228.62000000  17.48682895  1.50000000
C   228.62000000  19.94634110  1.50000000
C   228.62000000  22.40585325  1.50000000
C   228.62000000  24.86536539  1.50000000
C   230.04000000  2.72975607  1.50000000
C   230.04000000  5.18926822  1.50000000
C   230.04000000  7.64878037  1.50000000
C   230.04000000  10.10829251  1.50000000
C   230.04000000  12.56780466  1.50000000
C   230.04000000  15.02731681  1.50000000
C   230.04000000  17.48682895  1.50000000
C   230.04000000  19.94634110  1.50000000
C   230.04000000  22.40585325  1.50000000
C   230.04000000  24.86536539  1.50000000
C   230.75000000  1.50000000  1.50000000
C   230.75000000  3.95951215  1.50000000
C   230.75000000  6.41902429  1.50000000
C   230.75000000  8.87853644  1.50000000
C   230.75000000  11.33804859  1.50000000
C   230.75000000  13.79756073  1.50000000
C   230.75000000  16.25707288  1.50000000
C   230.75000000  18.71658503  1.50000000
C   230.75000000  21.17609717  1.50000000
C   230.75000000  23.63560932  1.50000000
C   230.75000000  26.09512147  1.50000000
C   232.17000000  1.50000000  1.50000000
C   232.17000000  3.95951215  1.50000000
C   232.17000000  6.41902429  1.50000000
C   232.17000000  8.87853644  1.50000000
C   232.17000000  11.33804859  1.50000000
C   232.17000000  13.79756073  1.50000000
C   232.17000000  16.25707288  1.50000000
C   232.17000000  18.71658503  1.50000000
C   232.17000000  21.17609717  1.50000000
C   232.17000000  23.63560932  1.50000000
C   232.17000000  26.09512147  1.50000000
C   232.88000000  2.72975607  1.50000000
C   232.88000000  5.18926822  1.50000000
C   232.88000000  7.64878037  1.50000000
C   232.88000000  10.10829251  1.50000000
C   232.88000000  12.56780466  1.50000000
C   232.88000000  15.02731681  1.50000000
C   232.88000000  17.48682895  1.50000000
C   232.88000000  19.94634110  1.50000000
C   232.88000000  22.40585325  1.50000000
C   232.88000000  24.86536539  1.50000000
C   234.30000000  2.72975607  1.50000000
C   234.30000000  5.18926822  1.50000000
C   234.30000000  7.64878037  1.50000000
C   234.30000000  10.10829251  1.50000000
C   234.30000000  12.56780466  1.50000000
C   234.30000000  15.02731681  1.50000000
C   234.30000000  17.48682895  1.50000000
C   234.30000000  19.94634110  1.50000000
C   234.30000000  22.40585325  1.50000000
C   234.30000000  24.86536539  1.50000000
C   235.01000000  1.50000000  1.50000000
C   235.01000000  3.95951215  1.50000000
C   235.01000000  6.41902429  1.50000000
C   235.01000000  8.87853644  1.50000000
C   235.01000000  11.33804859  1.50000000
C   235.01000000  13.79756073  1.50000000
C   235.01000000  16.25707288  1.50000000
C   235.01000000  18.71658503  1.50000000
C   235.01000000  21.17609717  1.50000000
C   235.01000000  23.63560932  1.50000000
C   235.01000000  26.09512147  1.50000000
C   236.43000000  1.50000000  1.50000000
C   236.43000000  3.95951215  1.50000000
C   236.43000000  6.41902429  1.50000000
C   236.43000000  8.87853644  1.50000000
C   236.43000000  11.33804859  1.50000000
C   236.43000000  13.79756073  1.50000000
C   236.43000000  16.25707288  1.50000000
C   236.43000000  18.71658503  1.50000000
C   236.43000000  21.17609717  1.50000000
C   236.43000000  23.63560932  1.50000000
C   236.43000000  26.09512147  1.50000000
C   237.14000000  2.72975607  1.50000000
C   237.14000000  5.18926822  1.50000000
C   237.14000000  7.64878037  1.50000000
C   237.14000000  10.10829251  1.50000000
C   237.14000000  12.56780466  1.50000000
C   237.14000000  15.02731681  1.50000000
C   237.14000000  17.48682895  1.50000000
C   237.14000000  19.94634110  1.50000000
C   237.14000000  22.40585325  1.50000000
C   237.14000000  24.86536539  1.50000000
C   238.56000000  2.72975607  1.50000000
C   238.56000000  5.18926822  1.50000000
C   238.56000000  7.64878037  1.50000000
C   238.56000000  10.10829251  1.50000000
C   238.56000000  12.56780466  1.50000000
C   238.56000000  15.02731681  1.50000000
C   238.56000000  17.48682895  1.50000000
C   238.56000000  19.94634110  1.50000000
C   238.56000000  22.40585325  1.50000000
C   238.56000000  24.86536539  1.50000000
C   239.27000000  1.50000000  1.50000000
C   239.27000000  3.95951215  1.50000000
C   239.27000000  6.41902429  1.50000000
C   239.27000000  8.87853644  1.50000000
C   239.27000000  11.33804859  1.50000000
C   239.27000000  13.79756073  1.50000000
C   239.27000000  16.25707288  1.50000000
C   239.27000000  18.71658503  1.50000000
C   239.27000000  21.17609717  1.50000000
C   239.27000000  23.63560932  1.50000000
C   239.27000000  26.09512147  1.50000000
C   240.69000000  1.50000000  1.50000000
C   240.69000000  3.95951215  1.50000000
C   240.69000000  6.41902429  1.50000000
C   240.69000000  8.87853644  1.50000000
C   240.69000000  11.33804859  1.50000000
C   240.69000000  13.79756073  1.50000000
C   240.69000000  16.25707288  1.50000000
C   240.69000000  18.71658503  1.50000000
C   240.69000000  21.17609717  1.50000000
C   240.69000000  23.63560932  1.50000000
C   240.69000000  26.09512147  1.50000000
C   241.40000000  2.72975607  1.50000000
C   241.40000000  5.18926822  1.50000000
C   241.40000000  7.64878037  1.50000000
C   241.40000000  10.10829251  1.50000000
C   241.40000000  12.56780466  1.50000000
C   241.40000000  15.02731681  1.50000000
C   241.40000000  17.48682895  1.50000000
C   241.40000000  19.94634110  1.50000000
C   241.40000000  22.40585325  1.50000000
C   241.40000000  24.86536539  1.50000000
C   242.82000000  2.72975607  1.50000000
C   242.82000000  5.18926822  1.50000000
C   242.82000000  7.64878037  1.50000000
C   242.82000000  10.10829251  1.50000000
C   242.82000000  12.56780466  1.50000000
C   242.82000000  15.02731681  1.50000000
C   242.82000000  17.48682895  1.50000000
C   242.82000000  19.94634110  1.50000000
C   242.82000000  22.40585325  1.50000000
C   242.82000000  24.86536539  1.50000000
C   243.53000000  1.50000000  1.50000000
C   243.53000000  3.95951215  1.50000000
C   243.53000000  6.41902429  1.50000000
C   243.53000000  8.87853644  1.50000000
C   243.53000000  11.33804859  1.50000000
C   243.53000000  13.79756073  1.50000000
C   243.53000000  16.25707288  1.50000000
C   243.53000000  18.71658503  1.50000000
C   243.53000000  21.17609717  1.50000000
C   243.53000000  23.63560932  1.50000000
C   243.53000000  26.09512147  1.50000000
C   244.95000000  1.50000000  1.50000000
C   244.95000000  3.95951215  1.50000000
C   244.95000000  6.41902429  1.50000000
C   244.95000000  8.87853644  1.50000000
C   244.95000000  11.33804859  1.50000000
C   244.95000000  13.79756073  1.50000000
C   244.95000000  16.25707288  1.50000000
C   244.95000000  18.71658503  1.50000000
C   244.95000000  21.17609717  1.50000000
C   244.95000000  23.63560932  1.50000000
C   244.95000000  26.09512147  1.50000000
C   245.66000000  2.72975607  1.50000000
C   245.66000000  5.18926822  1.50000000
C   245.66000000  7.64878037  1.50000000
C   245.66000000  10.10829251  1.50000000
C   245.66000000  12.56780466  1.50000000
C   245.66000000  15.02731681  1.50000000
C   245.66000000  17.48682895  1.50000000
C   245.66000000  19.94634110  1.50000000
C   245.66000000  22.40585325  1.50000000
C   245.66000000  24.86536539  1.50000000
C   247.08000000  2.72975607  1.50000000
C   247.08000000  5.18926822  1.50000000
C   247.08000000  7.64878037  1.50000000
C   247.08000000  10.10829251  1.50000000
C   247.08000000  12.56780466  1.50000000
C   247.08000000  15.02731681  1.50000000
C   247.08000000  17.48682895  1.50000000
C   247.08000000  19.94634110  1.50000000
C   247.08000000  22.40585325  1.50000000
C   247.08000000  24.86536539  1.50000000
C   247.79000000  1.50000000  1.50000000
C   247.79000000  3.95951215  1.50000000
C   247.79000000  6.41902429  1.50000000
C   247.79000000  8.87853644  1.50000000
C   247.79000000  11.33804859  1.50000000
C   247.79000000  13.79756073  1.50000000
C   247.79000000  16.25707288  1.50000000
C   247.79000000  18.71658503  1.50000000
C   247.79000000  21.17609717  1.50000000
C   247.79000000  23.63560932  1.50000000
C   247.79000000  26.09512147  1.50000000
C   249.21000000  1.50000000  1.50000000
C   249.21000000  3.95951215  1.50000000
C   249.21000000  6.41902429  1.50000000
C   249.21000000  8.87853644  1.50000000
C   249.21000000  11.33804859  1.50000000
C   249.21000000  13.79756073  1.50000000
C   249.21000000  16.25707288  1.50000000
C   249.21000000  18.71658503  1.50000000
C   249.21000000  21.17609717  1.50000000
C   249.21000000  23.63560932  1.50000000
C   249.21000000  26.09512147  1.50000000
C   249.92000000  2.72975607  1.50000000
C   249.92000000  5.18926822  1.50000000
C   249.92000000  7.64878037  1.50000000
C   249.92000000  10.10829251  1.50000000
C   249.92000000  12.56780466  1.50000000
C   249.92000000  15.02731681  1.50000000
C   249.92000000  17.48682895  1.50000000
C   249.92000000  19.94634110  1.50000000
C   249.92000000  22.40585325  1.50000000
C   249.92000000  24.86536539  1.50000000
C   251.34000000  2.72975607  1.50000000
C   251.34000000  5.18926822  1.50000000
C   251.34000000  7.64878037  1.50000000
C   251.34000000  10.10829251  1.50000000
C   251.34000000  12.56780466  1.50000000
C   251.34000000  15.02731681  1.50000000
C   251.34000000  17.48682895  1.50000000
C   251.34000000  19.94634110  1.50000000
C   251.34000000  22.40585325  1.50000000
C   251.34000000  24.86536539  1.50000000
C   252.05000000  1.50000000  1.50000000
C   252.05000000  3.95951215  1.50000000
C   252.05000000  6.41902429  1.50000000
C   252.05000000  8.87853644  1.50000000
C   252.05000000  11.33804859  1.50000000
C   252.05000000  13.79756073  1.50000000
C   252.05000000  16.25707288  1.50000000
C   252.05000000  18.71658503  1.50000000
C   252.05000000  21.17609717  1.50000000
C   252.05000000  23.63560932  1.50000000
C   252.05000000  26.09512147  1.50000000
C   253.47000000  1.50000000  1.50000000
C   253.47000000  3.95951215  1.50000000
C   253.47000000  6.41902429  1.50000000
C   253.47000000  8.87853644  1.50000000
C   253.47000000  11.33804859  1.50000000
C   253.47000000  13.79756073  1.50000000
C   253.47000000  16.25707288  1.50000000
C   253.47000000  18.71658503  1.50000000
C   253.47000000  21.17609717  1.50000000
C   253.47000000  23.63560932  1.50000000
C   253.47000000  26.09512147  1.50000000
C   254.18000000  2.72975607  1.50000000
C   254.18000000  5.18926822  1.50000000
C   254.18000000  7.64878037  1.50000000
C   254.18000000  10.10829251  1.50000000
C   254.18000000  12.56780466  1.50000000
C   254.18000000  15.02731681  1.50000000
C   254.18000000  17.48682895  1.50000000
C   254.18000000  19.94634110  1.50000000
C   254.18000000  22.40585325  1.50000000
C   254.18000000  24.86536539  1.50000000
C   255.60000000  2.72975607  1.50000000
C   255.60000000  5.18926822  1.50000000
C   255.60000000  7.64878037  1.50000000
C   255.60000000  10.10829251  1.50000000
C   255.60000000  12.56780466  1.50000000
C   255.60000000  15.02731681  1.50000000
C   255.60000000  17.48682895  1.50000000
C   255.60000000  19.94634110  1.50000000
C   255.60000000  22.40585325  1.50000000
C   255.60000000  24.86536539  1.50000000
C   256.31000000  1.50000000  1.50000000
C   256.31000000  3.95951215  1.50000000
C   256.31000000  6.41902429  1.50000000
C   256.31000000  8.87853644  1.50000000
C   256.31000000  11.33804859  1.50000000
C   256.31000000  13.79756073  1.50000000
C   256.31000000  16.25707288  1.50000000
C   256.31000000  18.71658503  1.50000000
C   256.31000000  21.17609717  1.50000000
C   256.31000000  23.63560932  1.50000000
C   256.31000000  26.09512147  1.50000000
C   257.73000000  1.50000000  1.50000000
C   257.73000000  3.95951215  1.50000000
C   257.73000000  6.41902429  1.50000000
C   257.73000000  8.87853644  1.50000000
C   257.73000000  11.33804859  1.50000000
C   257.73000000  13.79756073  1.50000000
C   257.73000000  16.25707288  1.50000000
C   257.73000000  18.71658503  1.50000000
C   257.73000000  21.17609717  1.50000000
C   257.73000000  23.63560932  1.50000000
C   257.73000000  26.09512147  1.50000000
C   258.44000000  2.72975607  1.50000000
C   258.44000000  5.18926822  1.50000000
C   258.44000000  7.64878037  1.50000000
C   258.44000000  10.10829251  1.50000000
C   258.44000000  12.56780466  1.50000000
C   258.44000000  15.02731681  1.50000000
C   258.44000000  17.48682895  1.50000000
C   258.44000000  19.94634110  1.50000000
C   258.44000000  22.40585325  1.50000000
C   258.44000000  24.86536539  1.50000000
C   259.86000000  2.72975607  1.50000000
C   259.86000000  5.18926822  1.50000000
C   259.86000000  7.64878037  1.50000000
C   259.86000000  10.10829251  1.50000000
C   259.86000000  12.56780466  1.50000000
C   259.86000000  15.02731681  1.50000000
C   259.86000000  17.48682895  1.50000000
C   259.86000000  19.94634110  1.50000000
C   259.86000000  22.40585325  1.50000000
C   259.86000000  24.86536539  1.50000000
C   260.57000000  1.50000000  1.50000000
C   260.57000000  3.95951215  1.50000000
C   260.57000000  6.41902429  1.50000000
C   260.57000000  8.87853644  1.50000000
C   260.57000000  11.33804859  1.50000000
C   260.57000000  13.79756073  1.50000000
C   260.57000000  16.25707288  1.50000000
C   260.57000000  18.71658503  1.50000000
C   260.57000000  21.17609717  1.50000000
C   260.57000000  23.63560932  1.50000000
C   260.57000000  26.09512147  1.50000000
C   261.99000000  1.50000000  1.50000000
C   261.99000000  3.95951215  1.50000000
C   261.99000000  6.41902429  1.50000000
C   261.99000000  8.87853644  1.50000000
C   261.99000000  11.33804859  1.50000000
C   261.99000000  13.79756073  1.50000000
C   261.99000000  16.25707288  1.50000000
C   261.99000000  18.71658503  1.50000000
C   261.99000000  21.17609717  1.50000000
C   261.99000000  23.63560932  1.50000000
C   261.99000000  26.09512147  1.50000000
C   262.70000000  2.72975607  1.50000000
C   262.70000000  5.18926822  1.50000000
C   262.70000000  7.64878037  1.50000000
C   262.70000000  10.10829251  1.50000000
C   262.70000000  12.56780466  1.50000000
C   262.70000000  15.02731681  1.50000000
C   262.70000000  17.48682895  1.50000000
C   262.70000000  19.94634110  1.50000000
C   262.70000000  22.40585325  1.50000000
C   262.70000000  24.86536539  1.50000000
C   264.12000000  2.72975607  1.50000000
C   264.12000000  5.18926822  1.50000000
C   264.12000000  7.64878037  1.50000000
C   264.12000000  10.10829251  1.50000000
C   264.12000000  12.56780466  1.50000000
C   264.12000000  15.02731681  1.50000000
C   264.12000000  17.48682895  1.50000000
C   264.12000000  19.94634110  1.50000000
C   264.12000000  22.40585325  1.50000000
C   264.12000000  24.86536539  1.50000000
C   264.83000000  1.50000000  1.50000000
C   264.83000000  3.95951215  1.50000000
C   264.83000000  6.41902429  1.50000000
C   264.83000000  8.87853644  1.50000000
C   264.83000000  11.33804859  1.50000000
C   264.83000000  13.79756073  1.50000000
C   264.83000000  16.25707288  1.50000000
C   264.83000000  18.71658503  1.50000000
C   264.83000000  21.17609717  1.50000000
C   264.83000000  23.63560932  1.50000000
C   264.83000000  26.09512147  1.50000000
C   266.25000000  1.50000000  1.50000000
C   266.25000000  3.95951215  1.50000000
C   266.25000000  6.41902429  1.50000000
C   266.25000000  8.87853644  1.50000000
C   266.25000000  11.33804859  1.50000000
C   266.25000000  13.79756073  1.50000000
C   266.25000000  16.25707288  1.50000000
C   266.25000000  18.71658503  1.50000000
C   266.25000000  21.17609717  1.50000000
C   266.25000000  23.63560932  1.50000000
C   266.25000000  26.09512147  1.50000000
C   266.96000000  2.72975607  1.50000000
C   266.96000000  5.18926822  1.50000000
C   266.96000000  7.64878037  1.50000000
C   266.96000000  10.10829251  1.50000000
C   266.96000000  12.56780466  1.50000000
C   266.96000000  15.02731681  1.50000000
C   266.96000000  17.48682895  1.50000000
C   266.96000000  19.94634110  1.50000000
C   266.96000000  22.40585325  1.50000000
C   266.96000000  24.86536539  1.50000000
C   268.38000000  2.72975607  1.50000000
C   268.38000000  5.18926822  1.50000000
C   268.38000000  7.64878037  1.50000000
C   268.38000000  10.10829251  1.50000000
C   268.38000000  12.56780466  1.50000000
C   268.38000000  15.02731681  1.50000000
C   268.38000000  17.48682895  1.50000000
C   268.38000000  19.94634110  1.50000000
C   268.38000000  22.40585325  1.50000000
C   268.38000000  24.86536539  1.50000000
C   269.09000000  1.50000000  1.50000000
C   269.09000000  3.95951215  1.50000000
C   269.09000000  6.41902429  1.50000000
C   269.09000000  8.87853644  1.50000000
C   269.09000000  11.33804859  1.50000000
C   269.09000000  13.79756073  1.50000000
C   269.09000000  16.25707288  1.50000000
C   269.09000000  18.71658503  1.50000000
C   269.09000000  21.17609717  1.50000000
C   269.09000000  23.63560932  1.50000000
C   269.09000000  26.09512147  1.50000000
C   270.51000000  1.50000000  1.50000000
C   270.51000000  3.95951215  1.50000000
C   270.51000000  6.41902429  1.50000000
C   270.51000000  8.87853644  1.50000000
C   270.51000000  11.33804859  1.50000000
C   270.51000000  13.79756073  1.50000000
C   270.51000000  16.25707288  1.50000000
C   270.51000000  18.71658503  1.50000000
C   270.51000000  21.17609717  1.50000000
C   270.51000000  23.63560932  1.50000000
C   270.51000000  26.09512147  1.50000000
C   271.22000000  2.72975607  1.50000000
C   271.22000000  5.18926822  1.50000000
C   271.22000000  7.64878037  1.50000000
C   271.22000000  10.10829251  1.50000000
C   271.22000000  12.56780466  1.50000000
C   271.22000000  15.02731681  1.50000000
C   271.22000000  17.48682895  1.50000000
C   271.22000000  19.94634110  1.50000000
C   271.22000000  22.40585325  1.50000000
C   271.22000000  24.86536539  1.50000000
C   272.64000000  2.72975607  1.50000000
C   272.64000000  5.18926822  1.50000000
C   272.64000000  7.64878037  1.50000000
C   272.64000000  10.10829251  1.50000000
C   272.64000000  12.56780466  1.50000000
C   272.64000000  15.02731681  1.50000000
C   272.64000000  17.48682895  1.50000000
C   272.64000000  19.94634110  1.50000000
C   272.64000000  22.40585325  1.50000000
C   272.64000000  24.86536539  1.50000000
C   273.35000000  1.50000000  1.50000000
C   273.35000000  3.95951215  1.50000000
C   273.35000000  6.41902429  1.50000000
C   273.35000000  8.87853644  1.50000000
C   273.35000000  11.33804859  1.50000000
C   273.35000000  13.79756073  1.50000000
C   273.35000000  16.25707288  1.50000000
C   273.35000000  18.71658503  1.50000000
C   273.35000000  21.17609717  1.50000000
C   273.35000000  23.63560932  1.50000000
C   273.35000000  26.09512147  1.50000000
C   274.77000000  1.50000000  1.50000000
C   274.77000000  3.95951215  1.50000000
C   274.77000000  6.41902429  1.50000000
C   274.77000000  8.87853644  1.50000000
C   274.77000000  11.33804859  1.50000000
C   274.77000000  13.79756073  1.50000000
C   274.77000000  16.25707288  1.50000000
C   274.77000000  18.71658503  1.50000000
C   274.77000000  21.17609717  1.50000000
C   274.77000000  23.63560932  1.50000000
C   274.77000000  26.09512147  1.50000000
C   275.48000000  2.72975607  1.50000000
C   275.48000000  5.18926822  1.50000000
C   275.48000000  7.64878037  1.50000000
C   275.48000000  10.10829251  1.50000000
C   275.48000000  12.56780466  1.50000000
C   275.48000000  15.02731681  1.50000000
C   275.48000000  17.48682895  1.50000000
C   275.48000000  19.94634110  1.50000000
C   275.48000000  22.40585325  1.50000000
C   275.48000000  24.86536539  1.50000000
C   276.90000000  2.72975607  1.50000000
C   276.90000000  5.18926822  1.50000000
C   276.90000000  7.64878037  1.50000000
C   276.90000000  10.10829251  1.50000000
C   276.90000000  12.56780466  1.50000000
C   276.90000000  15.02731681  1.50000000
C   276.90000000  17.48682895  1.50000000
C   276.90000000  19.94634110  1.50000000
C   276.90000000  22.40585325  1.50000000
C   276.90000000  24.86536539  1.50000000
C   277.61000000  1.50000000  1.50000000
C   277.61000000  3.95951215  1.50000000
C   277.61000000  6.41902429  1.50000000
C   277.61000000  8.87853644  1.50000000
C   277.61000000  11.33804859  1.50000000
C   277.61000000  13.79756073  1.50000000
C   277.61000000  16.25707288  1.50000000
C   277.61000000  18.71658503  1.50000000
C   277.61000000  21.17609717  1.50000000
C   277.61000000  23.63560932  1.50000000
C   277.61000000  26.09512147  1.50000000
C   279.03000000  1.50000000  1.50000000
C   279.03000000  3.95951215  1.50000000
C   279.03000000  6.41902429  1.50000000
C   279.03000000  8.87853644  1.50000000
C   279.03000000  11.33804859  1.50000000
C   279.03000000  13.79756073  1.50000000
C   279.03000000  16.25707288  1.50000000
C   279.03000000  18.71658503  1.50000000
C   279.03000000  21.17609717  1.50000000
C   279.03000000  23.63560932  1.50000000
C   279.03000000  26.09512147  1.50000000
C   279.74000000  2.72975607  1.50000000
C   279.74000000  5.18926822  1.50000000
C   279.74000000  7.64878037  1.50000000
C   279.74000000  10.10829251  1.50000000
C   279.74000000  12.56780466  1.50000000
C   279.74000000  15.02731681  1.50000000
C   279.74000000  17.48682895  1.50000000
C   279.74000000  19.94634110  1.50000000
C   279.74000000  22.40585325  1.50000000
C   279.74000000  24.86536539  1.50000000
C   281.16000000  2.72975607  1.50000000
C   281.16000000  5.18926822  1.50000000
C   281.16000000  7.64878037  1.50000000
C   281.16000000  10.10829251  1.50000000
C   281.16000000  12.56780466  1.50000000
C   281.16000000  15.02731681  1.50000000
C   281.16000000  17.48682895  1.50000000
C   281.16000000  19.94634110  1.50000000
C   281.16000000  22.40585325  1.50000000
C   281.16000000  24.86536539  1.50000000
C   281.87000000  1.50000000  1.50000000
C   281.87000000  3.95951215  1.50000000
C   281.87000000  6.41902429  1.50000000
C   281.87000000  8.87853644  1.50000000
C   281.87000000  11.33804859  1.50000000
C   281.87000000  13.79756073  1.50000000
C   281.87000000  16.25707288  1.50000000
C   281.87000000  18.71658503  1.50000000
C   281.87000000  21.17609717  1.50000000
C   281.87000000  23.63560932  1.50000000
C   281.87000000  26.09512147  1.50000000
C   283.29000000  1.50000000  1.50000000
C   283.29000000  3.95951215  1.50000000
C   283.29000000  6.41902429  1.50000000
C   283.29000000  8.87853644  1.50000000
C   283.29000000  11.33804859  1.50000000
C   283.29000000  13.79756073  1.50000000
C   283.29000000  16.25707288  1.50000000
C   283.29000000  18.71658503  1.50000000
C   283.29000000  21.17609717  1.50000000
C   283.29000000  23.63560932  1.50000000
C   283.29000000  26.09512147  1.50000000
C   284.00000000  2.72975607  1.50000000
C   284.00000000  5.18926822  1.50000000
C   284.00000000  7.64878037  1.50000000
C   284.00000000  10.10829251  1.50000000
C   284.00000000  12.56780466  1.50000000
C   284.00000000  15.02731681  1.50000000
C   284.00000000  17.48682895  1.50000000
C   284.00000000  19.94634110  1.50000000
C   284.00000000  22.40585325  1.50000000
C   284.00000000  24.86536539  1.50000000
C   285.42000000  2.72975607  1.50000000
C   285.42000000  5.18926822  1.50000000
C   285.42000000  7.64878037  1.50000000
C   285.42000000  10.10829251  1.50000000
C   285.42000000  12.56780466  1.50000000
C   285.42000000  15.02731681  1.50000000
C   285.42000000  17.48682895  1.50000000
C   285.42000000  19.94634110  1.50000000
C   285.42000000  22.40585325  1.50000000
C   285.42000000  24.86536539  1.50000000
C   286.13000000  1.50000000  1.50000000
C   286.13000000  3.95951215  1.50000000
C   286.13000000  6.41902429  1.50000000
C   286.13000000  8.87853644  1.50000000
C   286.13000000  11.33804859  1.50000000
C   286.13000000  13.79756073  1.50000000
C   286.13000000  16.25707288  1.50000000
C   286.13000000  18.71658503  1.50000000
C   286.13000000  21.17609717  1.50000000
C   286.13000000  23.63560932  1.50000000
C   286.13000000  26.09512147  1.50000000
C   287.55000000  1.50000000  1.50000000
C   287.55000000  3.95951215  1.50000000
C   287.55000000  6.41902429  1.50000000
C   287.55000000  8.87853644  1.50000000
C   287.55000000  11.33804859  1.50000000
C   287.55000000  13.79756073  1.50000000
C   287.55000000  16.25707288  1.50000000
C   287.55000000  18.71658503  1.50000000
C   287.55000000  21.17609717  1.50000000
C   287.55000000  23.63560932  1.50000000
C   287.55000000  26.09512147  1.50000000
C   288.26000000  2.72975607  1.50000000
C   288.26000000  5.18926822  1.50000000
C   288.26000000  7.64878037  1.50000000
C   288.26000000  10.10829251  1.50000000
C   288.26000000  12.56780466  1.50000000
C   288.26000000  15.02731681  1.50000000
C   288.26000000  17.48682895  1.50000000
C   288.26000000  19.94634110  1.50000000
C   288.26000000  22.40585325  1.50000000
C   288.26000000  24.86536539  1.50000000
C   289.68000000  2.72975607  1.50000000
C   289.68000000  5.18926822  1.50000000
C   289.68000000  7.64878037  1.50000000
C   289.68000000  10.10829251  1.50000000
C   289.68000000  12.56780466  1.50000000
C   289.68000000  15.02731681  1.50000000
C   289.68000000  17.48682895  1.50000000
C   289.68000000  19.94634110  1.50000000
C   289.68000000  22.40585325  1.50000000
C   289.68000000  24.86536539  1.50000000
C   290.39000000  1.50000000  1.50000000
C   290.39000000  3.95951215  1.50000000
C   290.39000000  6.41902429  1.50000000
C   290.39000000  8.87853644  1.50000000
C   290.39000000  11.33804859  1.50000000
C   290.39000000  13.79756073  1.50000000
C   290.39000000  16.25707288  1.50000000
C   290.39000000  18.71658503  1.50000000
C   290.39000000  21.17609717  1.50000000
C   290.39000000  23.63560932  1.50000000
C   290.39000000  26.09512147  1.50000000
C   291.81000000  1.50000000  1.50000000
C   291.81000000  3.95951215  1.50000000
C   291.81000000  6.41902429  1.50000000
C   291.81000000  8.87853644  1.50000000
C   291.81000000  11.33804859  1.50000000
C   291.81000000  13.79756073  1.50000000
C   291.81000000  16.25707288  1.50000000
C   291.81000000  18.71658503  1.50000000
C   291.81000000  21.17609717  1.50000000
C   291.81000000  23.63560932  1.50000000
C   291.81000000  26.09512147  1.50000000
C   292.52000000  2.72975607  1.50000000
C   292.52000000  5.18926822  1.50000000
C   292.52000000  7.64878037  1.50000000
C   292.52000000  10.10829251  1.50000000
C   292.52000000  12.56780466  1.50000000
C   292.52000000  15.02731681  1.50000000
C   292.52000000  17.48682895  1.50000000
C   292.52000000  19.94634110  1.50000000
C   292.52000000  22.40585325  1.50000000
C   292.52000000  24.86536539  1.50000000
C   293.94000000  2.72975607  1.50000000
C   293.94000000  5.18926822  1.50000000
C   293.94000000  7.64878037  1.50000000
C   293.94000000  10.10829251  1.50000000
C   293.94000000  12.56780466  1.50000000
C   293.94000000  15.02731681  1.50000000
C   293.94000000  17.48682895  1.50000000
C   293.94000000  19.94634110  1.50000000
C   293.94000000  22.40585325  1.50000000
C   293.94000000  24.86536539  1.50000000
C   294.65000000  1.50000000  1.50000000
C   294.65000000  3.95951215  1.50000000
C   294.65000000  6.41902429  1.50000000
C   294.65000000  8.87853644  1.50000000
C   294.65000000  11.33804859  1.50000000
C   294.65000000  13.79756073  1.50000000
C   294.65000000  16.25707288  1.50000000
C   294.65000000  18.71658503  1.50000000
C   294.65000000  21.17609717  1.50000000
C   294.65000000  23.63560932  1.50000000
C   294.65000000  26.09512147  1.50000000
C   296.07000000  1.50000000  1.50000000
C   296.07000000  3.95951215  1.50000000
C   296.07000000  6.41902429  1.50000000
C   296.07000000  8.87853644  1.50000000
C   296.07000000  11.33804859  1.50000000
C   296.07000000  13.79756073  1.50000000
C   296.07000000  16.25707288  1.50000000
C   296.07000000  18.71658503  1.50000000
C   296.07000000  21.17609717  1.50000000
C   296.07000000  23.63560932  1.50000000
C   296.07000000  26.09512147  1.50000000
C   296.78000000  2.72975607  1.50000000
C   296.78000000  5.18926822  1.50000000
C   296.78000000  7.64878037  1.50000000
C   296.78000000  10.10829251  1.50000000
C   296.78000000  12.56780466  1.50000000
C   296.78000000  15.02731681  1.50000000
C   296.78000000  17.48682895  1.50000000
C   296.78000000  19.94634110  1.50000000
C   296.78000000  22.40585325  1.50000000
C   296.78000000  24.86536539  1.50000000
C   298.20000000  2.72975607  1.50000000
C   298.20000000  5.18926822  1.50000000
C   298.20000000  7.64878037  1.50000000
C   298.20000000  10.10829251  1.50000000
C   298.20000000  12.56780466  1.50000000
C   298.20000000  15.02731681  1.50000000
C   298.20000000  17.48682895  1.50000000
C   298.20000000  19.94634110  1.50000000
C   298.20000000  22.40585325  1.50000000
C   298.20000000  24.86536539  1.50000000
C   298.91000000  1.50000000  1.50000000
C   298.91000000  3.95951215  1.50000000
C   298.91000000  6.41902429  1.50000000
C   298.91000000  8.87853644  1.50000000
C   298.91000000  11.33804859  1.50000000
C   298.91000000  13.79756073  1.50000000
C   298.91000000  16.25707288  1.50000000
C   298.91000000  18.71658503  1.50000000
C   298.91000000  21.17609717  1.50000000
C   298.91000000  23.63560932  1.50000000
C   298.91000000  26.09512147  1.50000000
C   300.33000000  1.50000000  1.50000000
C   300.33000000  3.95951215  1.50000000
C   300.33000000  6.41902429  1.50000000
C   300.33000000  8.87853644  1.50000000
C   300.33000000  11.33804859  1.50000000
C   300.33000000  13.79756073  1.50000000
C   300.33000000  16.25707288  1.50000000
C   300.33000000  18.71658503  1.50000000
C   300.33000000  21.17609717  1.50000000
C   300.33000000  23.63560932  1.50000000
C   300.33000000  26.09512147  1.50000000
C   301.04000000  2.72975607  1.50000000
C   301.04000000  5.18926822  1.50000000
C   301.04000000  7.64878037  1.50000000
C   301.04000000  10.10829251  1.50000000
C   301.04000000  12.56780466  1.50000000
C   301.04000000  15.02731681  1.50000000
C   301.04000000  17.48682895  1.50000000
C   301.04000000  19.94634110  1.50000000
C   301.04000000  22.40585325  1.50000000
C   301.04000000  24.86536539  1.50000000
C   302.46000000  2.72975607  1.50000000
C   302.46000000  5.18926822  1.50000000
C   302.46000000  7.64878037  1.50000000
C   302.46000000  10.10829251  1.50000000
C   302.46000000  12.56780466  1.50000000
C   302.46000000  15.02731681  1.50000000
C   302.46000000  17.48682895  1.50000000
C   302.46000000  19.94634110  1.50000000
C   302.46000000  22.40585325  1.50000000
C   302.46000000  24.86536539  1.50000000
C   303.17000000  1.50000000  1.50000000
C   303.17000000  3.95951215  1.50000000
C   303.17000000  6.41902429  1.50000000
C   303.17000000  8.87853644  1.50000000
C   303.17000000  11.33804859  1.50000000
C   303.17000000  13.79756073  1.50000000
C   303.17000000  16.25707288  1.50000000
C   303.17000000  18.71658503  1.50000000
C   303.17000000  21.17609717  1.50000000
C   303.17000000  23.63560932  1.50000000
C   303.17000000  26.09512147  1.50000000
C   304.59000000  1.50000000  1.50000000
C   304.59000000  3.95951215  1.50000000
C   304.59000000  6.41902429  1.50000000
C   304.59000000  8.87853644  1.50000000
C   304.59000000  11.33804859  1.50000000
C   304.59000000  13.79756073  1.50000000
C   304.59000000  16.25707288  1.50000000
C   304.59000000  18.71658503  1.50000000
C   304.59000000  21.17609717  1.50000000
C   304.59000000  23.63560932  1.50000000
C   304.59000000  26.09512147  1.50000000
C   305.30000000  2.72975607  1.50000000
C   305.30000000  5.18926822  1.50000000
C   305.30000000  7.64878037  1.50000000
C   305.30000000  10.10829251  1.50000000
C   305.30000000  12.56780466  1.50000000
C   305.30000000  15.02731681  1.50000000
C   305.30000000  17.48682895  1.50000000
C   305.30000000  19.94634110  1.50000000
C   305.30000000  22.40585325  1.50000000
C   305.30000000  24.86536539  1.50000000
C   306.72000000  2.72975607  1.50000000
C   306.72000000  5.18926822  1.50000000
C   306.72000000  7.64878037  1.50000000
C   306.72000000  10.10829251  1.50000000
C   306.72000000  12.56780466  1.50000000
C   306.72000000  15.02731681  1.50000000
C   306.72000000  17.48682895  1.50000000
C   306.72000000  19.94634110  1.50000000
C   306.72000000  22.40585325  1.50000000
C   306.72000000  24.86536539  1.50000000
C   307.43000000  1.50000000  1.50000000
C   307.43000000  3.95951215  1.50000000
C   307.43000000  6.41902429  1.50000000
C   307.43000000  8.87853644  1.50000000
C   307.43000000  11.33804859  1.50000000
C   307.43000000  13.79756073  1.50000000
C   307.43000000  16.25707288  1.50000000
C   307.43000000  18.71658503  1.50000000
C   307.43000000  21.17609717  1.50000000
C   307.43000000  23.63560932  1.50000000
C   307.43000000  26.09512147  1.50000000
C   308.85000000  1.50000000  1.50000000
C   308.85000000  3.95951215  1.50000000
C   308.85000000  6.41902429  1.50000000
C   308.85000000  8.87853644  1.50000000
C   308.85000000  11.33804859  1.50000000
C   308.85000000  13.79756073  1.50000000
C   308.85000000  16.25707288  1.50000000
C   308.85000000  18.71658503  1.50000000
C   308.85000000  21.17609717  1.50000000
C   308.85000000  23.63560932  1.50000000
C   308.85000000  26.09512147  1.50000000
C   309.56000000  2.72975607  1.50000000
C   309.56000000  5.18926822  1.50000000
C   309.56000000  7.64878037  1.50000000
C   309.56000000  10.10829251  1.50000000
C   309.56000000  12.56780466  1.50000000
C   309.56000000  15.02731681  1.50000000
C   309.56000000  17.48682895  1.50000000
C   309.56000000  19.94634110  1.50000000
C   309.56000000  22.40585325  1.50000000
C   309.56000000  24.86536539  1.50000000
C   310.98000000  2.72975607  1.50000000
C   310.98000000  5.18926822  1.50000000
C   310.98000000  7.64878037  1.50000000
C   310.98000000  10.10829251  1.50000000
C   310.98000000  12.56780466  1.50000000
C   310.98000000  15.02731681  1.50000000
C   310.98000000  17.48682895  1.50000000
C   310.98000000  19.94634110  1.50000000
C   310.98000000  22.40585325  1.50000000
C   310.98000000  24.86536539  1.50000000
C   311.69000000  1.50000000  1.50000000
C   311.69000000  3.95951215  1.50000000
C   311.69000000  6.41902429  1.50000000
C   311.69000000  8.87853644  1.50000000
C   311.69000000  11.33804859  1.50000000
C   311.69000000  13.79756073  1.50000000
C   311.69000000  16.25707288  1.50000000
C   311.69000000  18.71658503  1.50000000
C   311.69000000  21.17609717  1.50000000
C   311.69000000  23.63560932  1.50000000
C   311.69000000  26.09512147  1.50000000
C   313.11000000  1.50000000  1.50000000
C   313.11000000  3.95951215  1.50000000
C   313.11000000  6.41902429  1.50000000
C   313.11000000  8.87853644  1.50000000
C   313.11000000  11.33804859  1.50000000
C   313.11000000  13.79756073  1.50000000
C   313.11000000  16.25707288  1.50000000
C   313.11000000  18.71658503  1.50000000
C   313.11000000  21.17609717  1.50000000
C   313.11000000  23.63560932  1.50000000
C   313.11000000  26.09512147  1.50000000
C   313.82000000  2.72975607  1.50000000
C   313.82000000  5.18926822  1.50000000
C   313.82000000  7.64878037  1.50000000
C   313.82000000  10.10829251  1.50000000
C   313.82000000  12.56780466  1.50000000
C   313.82000000  15.02731681  1.50000000
C   313.82000000  17.48682895  1.50000000
C   313.82000000  19.94634110  1.50000000
C   313.82000000  22.40585325  1.50000000
C   313.82000000  24.86536539  1.50000000
C   315.24000000  2.72975607  1.50000000
C   315.24000000  5.18926822  1.50000000
C   315.24000000  7.64878037  1.50000000
C   315.24000000  10.10829251  1.50000000
C   315.24000000  12.56780466  1.50000000
C   315.24000000  15.02731681  1.50000000
C   315.24000000  17.48682895  1.50000000
C   315.24000000  19.94634110  1.50000000
C   315.24000000  22.40585325  1.50000000
C   315.24000000  24.86536539  1.50000000
C   315.95000000  1.50000000  1.50000000
C   315.95000000  3.95951215  1.50000000
C   315.95000000  6.41902429  1.50000000
C   315.95000000  8.87853644  1.50000000
C   315.95000000  11.33804859  1.50000000
C   315.95000000  13.79756073  1.50000000
C   315.95000000  16.25707288  1.50000000
C   315.95000000  18.71658503  1.50000000
C   315.95000000  21.17609717  1.50000000
C   315.95000000  23.63560932  1.50000000
C   315.95000000  26.09512147  1.50000000
C   317.37000000  1.50000000  1.50000000
C   317.37000000  3.95951215  1.50000000
C   317.37000000  6.41902429  1.50000000
C   317.37000000  8.87853644  1.50000000
C   317.37000000  11.33804859  1.50000000
C   317.37000000  13.79756073  1.50000000
C   317.37000000  16.25707288  1.50000000
C   317.37000000  18.71658503  1.50000000
C   317.37000000  21.17609717  1.50000000
C   317.37000000  23.63560932  1.50000000
C   317.37000000  26.09512147  1.50000000
C   318.08000000  2.72975607  1.50000000
C   318.08000000  5.18926822  1.50000000
C   318.08000000  7.64878037  1.50000000
C   318.08000000  10.10829251  1.50000000
C   318.08000000  12.56780466  1.50000000
C   318.08000000  15.02731681  1.50000000
C   318.08000000  17.48682895  1.50000000
C   318.08000000  19.94634110  1.50000000
C   318.08000000  22.40585325  1.50000000
C   318.08000000  24.86536539  1.50000000
C   319.50000000  2.72975607  1.50000000
C   319.50000000  5.18926822  1.50000000
C   319.50000000  7.64878037  1.50000000
C   319.50000000  10.10829251  1.50000000
C   319.50000000  12.56780466  1.50000000
C   319.50000000  15.02731681  1.50000000
C   319.50000000  17.48682895  1.50000000
C   319.50000000  19.94634110  1.50000000
C   319.50000000  22.40585325  1.50000000
C   319.50000000  24.86536539  1.50000000
C   320.21000000  1.50000000  1.50000000
C   320.21000000  3.95951215  1.50000000
C   320.21000000  6.41902429  1.50000000
C   320.21000000  8.87853644  1.50000000
C   320.21000000  11.33804859  1.50000000
C   320.21000000  13.79756073  1.50000000
C   320.21000000  16.25707288  1.50000000
C   320.21000000  18.71658503  1.50000000
C   320.21000000  21.17609717  1.50000000
C   320.21000000  23.63560932  1.50000000
C   320.21000000  26.09512147  1.50000000
C   321.63000000  1.50000000  1.50000000
C   321.63000000  3.95951215  1.50000000
C   321.63000000  6.41902429  1.50000000
C   321.63000000  8.87853644  1.50000000
C   321.63000000  11.33804859  1.50000000
C   321.63000000  13.79756073  1.50000000
C   321.63000000  16.25707288  1.50000000
C   321.63000000  18.71658503  1.50000000
C   321.63000000  21.17609717  1.50000000
C   321.63000000  23.63560932  1.50000000
C   321.63000000  26.09512147  1.50000000
C   322.34000000  2.72975607  1.50000000
C   322.34000000  5.18926822  1.50000000
C   322.34000000  7.64878037  1.50000000
C   322.34000000  10.10829251  1.50000000
C   322.34000000  12.56780466  1.50000000
C   322.34000000  15.02731681  1.50000000
C   322.34000000  17.48682895  1.50000000
C   322.34000000  19.94634110  1.50000000
C   322.34000000  22.40585325  1.50000000
C   322.34000000  24.86536539  1.50000000
C   323.76000000  2.72975607  1.50000000
C   323.76000000  5.18926822  1.50000000
C   323.76000000  7.64878037  1.50000000
C   323.76000000  10.10829251  1.50000000
C   323.76000000  12.56780466  1.50000000
C   323.76000000  15.02731681  1.50000000
C   323.76000000  17.48682895  1.50000000
C   323.76000000  19.94634110  1.50000000
C   323.76000000  22.40585325  1.50000000
C   323.76000000  24.86536539  1.50000000
C   324.47000000  1.50000000  1.50000000
C   324.47000000  3.95951215  1.50000000
C   324.47000000  6.41902429  1.50000000
C   324.47000000  8.87853644  1.50000000
C   324.47000000  11.33804859  1.50000000
C   324.47000000  13.79756073  1.50000000
C   324.47000000  16.25707288  1.50000000
C   324.47000000  18.71658503  1.50000000
C   324.47000000  21.17609717  1.50000000
C   324.47000000  23.63560932  1.50000000
C   324.47000000  26.09512147  1.50000000
C   325.89000000  1.50000000  1.50000000
C   325.89000000  3.95951215  1.50000000
C   325.89000000  6.41902429  1.50000000
C   325.89000000  8.87853644  1.50000000
C   325.89000000  11.33804859  1.50000000
C   325.89000000  13.79756073  1.50000000
C   325.89000000  16.25707288  1.50000000
C   325.89000000  18.71658503  1.50000000
C   325.89000000  21.17609717  1.50000000
C   325.89000000  23.63560932  1.50000000
C   325.89000000  26.09512147  1.50000000
C   326.60000000  2.72975607  1.50000000
C   326.60000000  5.18926822  1.50000000
C   326.60000000  7.64878037  1.50000000
C   326.60000000  10.10829251  1.50000000
C   326.60000000  12.56780466  1.50000000
C   326.60000000  15.02731681  1.50000000
C   326.60000000  17.48682895  1.50000000
C   326.60000000  19.94634110  1.50000000
C   326.60000000  22.40585325  1.50000000
C   326.60000000  24.86536539  1.50000000
C   328.02000000  2.72975607  1.50000000
C   328.02000000  5.18926822  1.50000000
C   328.02000000  7.64878037  1.50000000
C   328.02000000  10.10829251  1.50000000
C   328.02000000  12.56780466  1.50000000
C   328.02000000  15.02731681  1.50000000
C   328.02000000  17.48682895  1.50000000
C   328.02000000  19.94634110  1.50000000
C   328.02000000  22.40585325  1.50000000
C   328.02000000  24.86536539  1.50000000
C   328.73000000  1.50000000  1.50000000
C   328.73000000  3.95951215  1.50000000
C   328.73000000  6.41902429  1.50000000
C   328.73000000  8.87853644  1.50000000
C   328.73000000  11.33804859  1.50000000
C   328.73000000  13.79756073  1.50000000
C   328.73000000  16.25707288  1.50000000
C   328.73000000  18.71658503  1.50000000
C   328.73000000  21.17609717  1.50000000
C   328.73000000  23.63560932  1.50000000
C   328.73000000  26.09512147  1.50000000
C   330.15000000  1.50000000  1.50000000
C   330.15000000  3.95951215  1.50000000
C   330.15000000  6.41902429  1.50000000
C   330.15000000  8.87853644  1.50000000
C   330.15000000  11.33804859  1.50000000
C   330.15000000  13.79756073  1.50000000
C   330.15000000  16.25707288  1.50000000
C   330.15000000  18.71658503  1.50000000
C   330.15000000  21.17609717  1.50000000
C   330.15000000  23.63560932  1.50000000
C   330.15000000  26.09512147  1.50000000
C   330.86000000  2.72975607  1.50000000
C   330.86000000  5.18926822  1.50000000
C   330.86000000  7.64878037  1.50000000
C   330.86000000  10.10829251  1.50000000
C   330.86000000  12.56780466  1.50000000
C   330.86000000  15.02731681  1.50000000
C   330.86000000  17.48682895  1.50000000
C   330.86000000  19.94634110  1.50000000
C   330.86000000  22.40585325  1.50000000
C   330.86000000  24.86536539  1.50000000
C   332.28000000  2.72975607  1.50000000
C   332.28000000  5.18926822  1.50000000
C   332.28000000  7.64878037  1.50000000
C   332.28000000  10.10829251  1.50000000
C   332.28000000  12.56780466  1.50000000
C   332.28000000  15.02731681  1.50000000
C   332.28000000  17.48682895  1.50000000
C   332.28000000  19.94634110  1.50000000
C   332.28000000  22.40585325  1.50000000
C   332.28000000  24.86536539  1.50000000
C   332.99000000  1.50000000  1.50000000
C   332.99000000  3.95951215  1.50000000
C   332.99000000  6.41902429  1.50000000
C   332.99000000  8.87853644  1.50000000
C   332.99000000  11.33804859  1.50000000
C   332.99000000  13.79756073  1.50000000
C   332.99000000  16.25707288  1.50000000
C   332.99000000  18.71658503  1.50000000
C   332.99000000  21.17609717  1.50000000
C   332.99000000  23.63560932  1.50000000
C   332.99000000  26.09512147  1.50000000
C   334.41000000  1.50000000  1.50000000
C   334.41000000  3.95951215  1.50000000
C   334.41000000  6.41902429  1.50000000
C   334.41000000  8.87853644  1.50000000
C   334.41000000  11.33804859  1.50000000
C   334.41000000  13.79756073  1.50000000
C   334.41000000  16.25707288  1.50000000
C   334.41000000  18.71658503  1.50000000
C   334.41000000  21.17609717  1.50000000
C   334.41000000  23.63560932  1.50000000
C   334.41000000  26.09512147  1.50000000
C   335.12000000  2.72975607  1.50000000
C   335.12000000  5.18926822  1.50000000
C   335.12000000  7.64878037  1.50000000
C   335.12000000  10.10829251  1.50000000
C   335.12000000  12.56780466  1.50000000
C   335.12000000  15.02731681  1.50000000
C   335.12000000  17.48682895  1.50000000
C   335.12000000  19.94634110  1.50000000
C   335.12000000  22.40585325  1.50000000
C   335.12000000  24.86536539  1.50000000
C   336.54000000  2.72975607  1.50000000
C   336.54000000  5.18926822  1.50000000
C   336.54000000  7.64878037  1.50000000
C   336.54000000  10.10829251  1.50000000
C   336.54000000  12.56780466  1.50000000
C   336.54000000  15.02731681  1.50000000
C   336.54000000  17.48682895  1.50000000
C   336.54000000  19.94634110  1.50000000
C   336.54000000  22.40585325  1.50000000
C   336.54000000  24.86536539  1.50000000
C   337.25000000  1.50000000  1.50000000
C   337.25000000  3.95951215  1.50000000
C   337.25000000  6.41902429  1.50000000
C   337.25000000  8.87853644  1.50000000
C   337.25000000  11.33804859  1.50000000
C   337.25000000  13.79756073  1.50000000
C   337.25000000  16.25707288  1.50000000
C   337.25000000  18.71658503  1.50000000
C   337.25000000  21.17609717  1.50000000
C   337.25000000  23.63560932  1.50000000
C   337.25000000  26.09512147  1.50000000
C   338.67000000  1.50000000  1.50000000
C   338.67000000  3.95951215  1.50000000
C   338.67000000  6.41902429  1.50000000
C   338.67000000  8.87853644  1.50000000
C   338.67000000  11.33804859  1.50000000
C   338.67000000  13.79756073  1.50000000
C   338.67000000  16.25707288  1.50000000
C   338.67000000  18.71658503  1.50000000
C   338.67000000  21.17609717  1.50000000
C   338.67000000  23.63560932  1.50000000
C   338.67000000  26.09512147  1.50000000
C   339.38000000  2.72975607  1.50000000
C   339.38000000  5.18926822  1.50000000
C   339.38000000  7.64878037  1.50000000
C   339.38000000  10.10829251  1.50000000
C   339.38000000  12.56780466  1.50000000
C   339.38000000  15.02731681  1.50000000
C   339.38000000  17.48682895  1.50000000
C   339.38000000  19.94634110  1.50000000
C   339.38000000  22.40585325  1.50000000
C   339.38000000  24.86536539  1.50000000
C   340.80000000  2.72975607  1.50000000
C   340.80000000  5.18926822  1.50000000
C   340.80000000  7.64878037  1.50000000
C   340.80000000  10.10829251  1.50000000
C   340.80000000  12.56780466  1.50000000
C   340.80000000  15.02731681  1.50000000
C   340.80000000  17.48682895  1.50000000
C   340.80000000  19.94634110  1.50000000
C   340.80000000  22.40585325  1.50000000
C   340.80000000  24.86536539  1.50000000
C   341.51000000  1.50000000  1.50000000
C   341.51000000  3.95951215  1.50000000
C   341.51000000  6.41902429  1.50000000
C   341.51000000  8.87853644  1.50000000
C   341.51000000  11.33804859  1.50000000
C   341.51000000  13.79756073  1.50000000
C   341.51000000  16.25707288  1.50000000
C   341.51000000  18.71658503  1.50000000
C   341.51000000  21.17609717  1.50000000
C   341.51000000  23.63560932  1.50000000
C   341.51000000  26.09512147  1.50000000
C   342.93000000  1.50000000  1.50000000
C   342.93000000  3.95951215  1.50000000
C   342.93000000  6.41902429  1.50000000
C   342.93000000  8.87853644  1.50000000
C   342.93000000  11.33804859  1.50000000
C   342.93000000  13.79756073  1.50000000
C   342.93000000  16.25707288  1.50000000
C   342.93000000  18.71658503  1.50000000
C   342.93000000  21.17609717  1.50000000
C   342.93000000  23.63560932  1.50000000
C   342.93000000  26.09512147  1.50000000
C   343.64000000  2.72975607  1.50000000
C   343.64000000  5.18926822  1.50000000
C   343.64000000  7.64878037  1.50000000
C   343.64000000  10.10829251  1.50000000
C   343.64000000  12.56780466  1.50000000
C   343.64000000  15.02731681  1.50000000
C   343.64000000  17.48682895  1.50000000
C   343.64000000  19.94634110  1.50000000
C   343.64000000  22.40585325  1.50000000
C   343.64000000  24.86536539  1.50000000
C   345.06000000  2.72975607  1.50000000
C   345.06000000  5.18926822  1.50000000
C   345.06000000  7.64878037  1.50000000
C   345.06000000  10.10829251  1.50000000
C   345.06000000  12.56780466  1.50000000
C   345.06000000  15.02731681  1.50000000
C   345.06000000  17.48682895  1.50000000
C   345.06000000  19.94634110  1.50000000
C   345.06000000  22.40585325  1.50000000
C   345.06000000  24.86536539  1.50000000
C   345.77000000  1.50000000  1.50000000
C   345.77000000  3.95951215  1.50000000
C   345.77000000  6.41902429  1.50000000
C   345.77000000  8.87853644  1.50000000
C   345.77000000  11.33804859  1.50000000
C   345.77000000  13.79756073  1.50000000
C   345.77000000  16.25707288  1.50000000
C   345.77000000  18.71658503  1.50000000
C   345.77000000  21.17609717  1.50000000
C   345.77000000  23.63560932  1.50000000
C   345.77000000  26.09512147  1.50000000
C   347.19000000  1.50000000  1.50000000
C   347.19000000  3.95951215  1.50000000
C   347.19000000  6.41902429  1.50000000
C   347.19000000  8.87853644  1.50000000
C   347.19000000  11.33804859  1.50000000
C   347.19000000  13.79756073  1.50000000
C   347.19000000  16.25707288  1.50000000
C   347.19000000  18.71658503  1.50000000
C   347.19000000  21.17609717  1.50000000
C   347.19000000  23.63560932  1.50000000
C   347.19000000  26.09512147  1.50000000
C   347.90000000  2.72975607  1.50000000
C   347.90000000  5.18926822  1.50000000
C   347.90000000  7.64878037  1.50000000
C   347.90000000  10.10829251  1.50000000
C   347.90000000  12.56780466  1.50000000
C   347.90000000  15.02731681  1.50000000
C   347.90000000  17.48682895  1.50000000
C   347.90000000  19.94634110  1.50000000
C   347.90000000  22.40585325  1.50000000
C   347.90000000  24.86536539  1.50000000
C   349.32000000  2.72975607  1.50000000
C   349.32000000  5.18926822  1.50000000
C   349.32000000  7.64878037  1.50000000
C   349.32000000  10.10829251  1.50000000
C   349.32000000  12.56780466  1.50000000
C   349.32000000  15.02731681  1.50000000
C   349.32000000  17.48682895  1.50000000
C   349.32000000  19.94634110  1.50000000
C   349.32000000  22.40585325  1.50000000
C   349.32000000  24.86536539  1.50000000
C   350.03000000  1.50000000  1.50000000
C   350.03000000  3.95951215  1.50000000
C   350.03000000  6.41902429  1.50000000
C   350.03000000  8.87853644  1.50000000
C   350.03000000  11.33804859  1.50000000
C   350.03000000  13.79756073  1.50000000
C   350.03000000  16.25707288  1.50000000
C   350.03000000  18.71658503  1.50000000
C   350.03000000  21.17609717  1.50000000
C   350.03000000  23.63560932  1.50000000
C   350.03000000  26.09512147  1.50000000
C   351.45000000  1.50000000  1.50000000
C   351.45000000  3.95951215  1.50000000
C   351.45000000  6.41902429  1.50000000
C   351.45000000  8.87853644  1.50000000
C   351.45000000  11.33804859  1.50000000
C   351.45000000  13.79756073  1.50000000
C   351.45000000  16.25707288  1.50000000
C   351.45000000  18.71658503  1.50000000
C   351.45000000  21.17609717  1.50000000
C   351.45000000  23.63560932  1.50000000
C   351.45000000  26.09512147  1.50000000
C   352.16000000  2.72975607  1.50000000
C   352.16000000  5.18926822  1.50000000
C   352.16000000  7.64878037  1.50000000
C   352.16000000  10.10829251  1.50000000
C   352.16000000  12.56780466  1.50000000
C   352.16000000  15.02731681  1.50000000
C   352.16000000  17.48682895  1.50000000
C   352.16000000  19.94634110  1.50000000
C   352.16000000  22.40585325  1.50000000
C   352.16000000  24.86536539  1.50000000
C   353.58000000  2.72975607  1.50000000
C   353.58000000  5.18926822  1.50000000
C   353.58000000  7.64878037  1.50000000
C   353.58000000  10.10829251  1.50000000
C   353.58000000  12.56780466  1.50000000
C   353.58000000  15.02731681  1.50000000
C   353.58000000  17.48682895  1.50000000
C   353.58000000  19.94634110  1.50000000
C   353.58000000  22.40585325  1.50000000
C   353.58000000  24.86536539  1.50000000
C   354.29000000  1.50000000  1.50000000
C   354.29000000  3.95951215  1.50000000
C   354.29000000  6.41902429  1.50000000
C   354.29000000  8.87853644  1.50000000
C   354.29000000  11.33804859  1.50000000
C   354.29000000  13.79756073  1.50000000
C   354.29000000  16.25707288  1.50000000
C   354.29000000  18.71658503  1.50000000
C   354.29000000  21.17609717  1.50000000
C   354.29000000  23.63560932  1.50000000
C   354.29000000  26.09512147  1.50000000
C   355.71000000  1.50000000  1.50000000
C   355.71000000  3.95951215  1.50000000
C   355.71000000  6.41902429  1.50000000
C   355.71000000  8.87853644  1.50000000
C   355.71000000  11.33804859  1.50000000
C   355.71000000  13.79756073  1.50000000
C   355.71000000  16.25707288  1.50000000
C   355.71000000  18.71658503  1.50000000
C   355.71000000  21.17609717  1.50000000
C   355.71000000  23.63560932  1.50000000
C   355.71000000  26.09512147  1.50000000
C   356.42000000  2.72975607  1.50000000
C   356.42000000  5.18926822  1.50000000
C   356.42000000  7.64878037  1.50000000
C   356.42000000  10.10829251  1.50000000
C   356.42000000  12.56780466  1.50000000
C   356.42000000  15.02731681  1.50000000
C   356.42000000  17.48682895  1.50000000
C   356.42000000  19.94634110  1.50000000
C   356.42000000  22.40585325  1.50000000
C   356.42000000  24.86536539  1.50000000
C   357.84000000  2.72975607  1.50000000
C   357.84000000  5.18926822  1.50000000
C   357.84000000  7.64878037  1.50000000
C   357.84000000  10.10829251  1.50000000
C   357.84000000  12.56780466  1.50000000
C   357.84000000  15.02731681  1.50000000
C   357.84000000  17.48682895  1.50000000
C   357.84000000  19.94634110  1.50000000
C   357.84000000  22.40585325  1.50000000
C   357.84000000  24.86536539  1.50000000
C   358.55000000  1.50000000  1.50000000
C   358.55000000  3.95951215  1.50000000
C   358.55000000  6.41902429  1.50000000
C   358.55000000  8.87853644  1.50000000
C   358.55000000  11.33804859  1.50000000
C   358.55000000  13.79756073  1.50000000
C   358.55000000  16.25707288  1.50000000
C   358.55000000  18.71658503  1.50000000
C   358.55000000  21.17609717  1.50000000
C   358.55000000  23.63560932  1.50000000
C   358.55000000  26.09512147  1.50000000
C   359.97000000  1.50000000  1.50000000
C   359.97000000  3.95951215  1.50000000
C   359.97000000  6.41902429  1.50000000
C   359.97000000  8.87853644  1.50000000
C   359.97000000  11.33804859  1.50000000
C   359.97000000  13.79756073  1.50000000
C   359.97000000  16.25707288  1.50000000
C   359.97000000  18.71658503  1.50000000
C   359.97000000  21.17609717  1.50000000
C   359.97000000  23.63560932  1.50000000
C   359.97000000  26.09512147  1.50000000
C   360.68000000  2.72975607  1.50000000
C   360.68000000  5.18926822  1.50000000
C   360.68000000  7.64878037  1.50000000
C   360.68000000  10.10829251  1.50000000
C   360.68000000  12.56780466  1.50000000
C   360.68000000  15.02731681  1.50000000
C   360.68000000  17.48682895  1.50000000
C   360.68000000  19.94634110  1.50000000
C   360.68000000  22.40585325  1.50000000
C   360.68000000  24.86536539  1.50000000
C   362.10000000  2.72975607  1.50000000
C   362.10000000  5.18926822  1.50000000
C   362.10000000  7.64878037  1.50000000
C   362.10000000  10.10829251  1.50000000
C   362.10000000  12.56780466  1.50000000
C   362.10000000  15.02731681  1.50000000
C   362.10000000  17.48682895  1.50000000
C   362.10000000  19.94634110  1.50000000
C   362.10000000  22.40585325  1.50000000
C   362.10000000  24.86536539  1.50000000
C   362.81000000  1.50000000  1.50000000
C   362.81000000  3.95951215  1.50000000
C   362.81000000  6.41902429  1.50000000
C   362.81000000  8.87853644  1.50000000
C   362.81000000  11.33804859  1.50000000
C   362.81000000  13.79756073  1.50000000
C   362.81000000  16.25707288  1.50000000
C   362.81000000  18.71658503  1.50000000
C   362.81000000  21.17609717  1.50000000
C   362.81000000  23.63560932  1.50000000
C   362.81000000  26.09512147  1.50000000
C   364.23000000  1.50000000  1.50000000
C   364.23000000  3.95951215  1.50000000
C   364.23000000  6.41902429  1.50000000
C   364.23000000  8.87853644  1.50000000
C   364.23000000  11.33804859  1.50000000
C   364.23000000  13.79756073  1.50000000
C   364.23000000  16.25707288  1.50000000
C   364.23000000  18.71658503  1.50000000
C   364.23000000  21.17609717  1.50000000
C   364.23000000  23.63560932  1.50000000
C   364.23000000  26.09512147  1.50000000
C   364.94000000  2.72975607  1.50000000
C   364.94000000  5.18926822  1.50000000
C   364.94000000  7.64878037  1.50000000
C   364.94000000  10.10829251  1.50000000
C   364.94000000  12.56780466  1.50000000
C   364.94000000  15.02731681  1.50000000
C   364.94000000  17.48682895  1.50000000
C   364.94000000  19.94634110  1.50000000
C   364.94000000  22.40585325  1.50000000
C   364.94000000  24.86536539  1.50000000
C   366.36000000  2.72975607  1.50000000
C   366.36000000  5.18926822  1.50000000
C   366.36000000  7.64878037  1.50000000
C   366.36000000  10.10829251  1.50000000
C   366.36000000  12.56780466  1.50000000
C   366.36000000  15.02731681  1.50000000
C   366.36000000  17.48682895  1.50000000
C   366.36000000  19.94634110  1.50000000
C   366.36000000  22.40585325  1.50000000
C   366.36000000  24.86536539  1.50000000
C   367.07000000  1.50000000  1.50000000
C   367.07000000  3.95951215  1.50000000
C   367.07000000  6.41902429  1.50000000
C   367.07000000  8.87853644  1.50000000
C   367.07000000  11.33804859  1.50000000
C   367.07000000  13.79756073  1.50000000
C   367.07000000  16.25707288  1.50000000
C   367.07000000  18.71658503  1.50000000
C   367.07000000  21.17609717  1.50000000
C   367.07000000  23.63560932  1.50000000
C   367.07000000  26.09512147  1.50000000
C   368.49000000  1.50000000  1.50000000
C   368.49000000  3.95951215  1.50000000
C   368.49000000  6.41902429  1.50000000
C   368.49000000  8.87853644  1.50000000
C   368.49000000  11.33804859  1.50000000
C   368.49000000  13.79756073  1.50000000
C   368.49000000  16.25707288  1.50000000
C   368.49000000  18.71658503  1.50000000
C   368.49000000  21.17609717  1.50000000
C   368.49000000  23.63560932  1.50000000
C   368.49000000  26.09512147  1.50000000
C   369.20000000  2.72975607  1.50000000
C   369.20000000  5.18926822  1.50000000
C   369.20000000  7.64878037  1.50000000
C   369.20000000  10.10829251  1.50000000
C   369.20000000  12.56780466  1.50000000
C   369.20000000  15.02731681  1.50000000
C   369.20000000  17.48682895  1.50000000
C   369.20000000  19.94634110  1.50000000
C   369.20000000  22.40585325  1.50000000
C   369.20000000  24.86536539  1.50000000
C   370.62000000  2.72975607  1.50000000
C   370.62000000  5.18926822  1.50000000
C   370.62000000  7.64878037  1.50000000
C   370.62000000  10.10829251  1.50000000
C   370.62000000  12.56780466  1.50000000
C   370.62000000  15.02731681  1.50000000
C   370.62000000  17.48682895  1.50000000
C   370.62000000  19.94634110  1.50000000
C   370.62000000  22.40585325  1.50000000
C   370.62000000  24.86536539  1.50000000
C   371.33000000  1.50000000  1.50000000
C   371.33000000  3.95951215  1.50000000
C   371.33000000  6.41902429  1.50000000
C   371.33000000  8.87853644  1.50000000
C   371.33000000  11.33804859  1.50000000
C   371.33000000  13.79756073  1.50000000
C   371.33000000  16.25707288  1.50000000
C   371.33000000  18.71658503  1.50000000
C   371.33000000  21.17609717  1.50000000
C   371.33000000  23.63560932  1.50000000
C   371.33000000  26.09512147  1.50000000
C   372.75000000  1.50000000  1.50000000
C   372.75000000  3.95951215  1.50000000
C   372.75000000  6.41902429  1.50000000
C   372.75000000  8.87853644  1.50000000
C   372.75000000  11.33804859  1.50000000
C   372.75000000  13.79756073  1.50000000
C   372.75000000  16.25707288  1.50000000
C   372.75000000  18.71658503  1.50000000
C   372.75000000  21.17609717  1.50000000
C   372.75000000  23.63560932  1.50000000
C   372.75000000  26.09512147  1.50000000
C   373.46000000  2.72975607  1.50000000
C   373.46000000  5.18926822  1.50000000
C   373.46000000  7.64878037  1.50000000
C   373.46000000  10.10829251  1.50000000
C   373.46000000  12.56780466  1.50000000
C   373.46000000  15.02731681  1.50000000
C   373.46000000  17.48682895  1.50000000
C   373.46000000  19.94634110  1.50000000
C   373.46000000  22.40585325  1.50000000
C   373.46000000  24.86536539  1.50000000
C   374.88000000  2.72975607  1.50000000
C   374.88000000  5.18926822  1.50000000
C   374.88000000  7.64878037  1.50000000
C   374.88000000  10.10829251  1.50000000
C   374.88000000  12.56780466  1.50000000
C   374.88000000  15.02731681  1.50000000
C   374.88000000  17.48682895  1.50000000
C   374.88000000  19.94634110  1.50000000
C   374.88000000  22.40585325  1.50000000
C   374.88000000  24.86536539  1.50000000
C   375.59000000  1.50000000  1.50000000
C   375.59000000  3.95951215  1.50000000
C   375.59000000  6.41902429  1.50000000
C   375.59000000  8.87853644  1.50000000
C   375.59000000  11.33804859  1.50000000
C   375.59000000  13.79756073  1.50000000
C   375.59000000  16.25707288  1.50000000
C   375.59000000  18.71658503  1.50000000
C   375.59000000  21.17609717  1.50000000
C   375.59000000  23.63560932  1.50000000
C   375.59000000  26.09512147  1.50000000
C   377.01000000  1.50000000  1.50000000
C   377.01000000  3.95951215  1.50000000
C   377.01000000  6.41902429  1.50000000
C   377.01000000  8.87853644  1.50000000
C   377.01000000  11.33804859  1.50000000
C   377.01000000  13.79756073  1.50000000
C   377.01000000  16.25707288  1.50000000
C   377.01000000  18.71658503  1.50000000
C   377.01000000  21.17609717  1.50000000
C   377.01000000  23.63560932  1.50000000
C   377.01000000  26.09512147  1.50000000
C   377.72000000  2.72975607  1.50000000
C   377.72000000  5.18926822  1.50000000
C   377.72000000  7.64878037  1.50000000
C   377.72000000  10.10829251  1.50000000
C   377.72000000  12.56780466  1.50000000
C   377.72000000  15.02731681  1.50000000
C   377.72000000  17.48682895  1.50000000
C   377.72000000  19.94634110  1.50000000
C   377.72000000  22.40585325  1.50000000
C   377.72000000  24.86536539  1.50000000
C   379.14000000  2.72975607  1.50000000
C   379.14000000  5.18926822  1.50000000
C   379.14000000  7.64878037  1.50000000
C   379.14000000  10.10829251  1.50000000
C   379.14000000  12.56780466  1.50000000
C   379.14000000  15.02731681  1.50000000
C   379.14000000  17.48682895  1.50000000
C   379.14000000  19.94634110  1.50000000
C   379.14000000  22.40585325  1.50000000
C   379.14000000  24.86536539  1.50000000
C   379.85000000  1.50000000  1.50000000
C   379.85000000  3.95951215  1.50000000
C   379.85000000  6.41902429  1.50000000
C   379.85000000  8.87853644  1.50000000
C   379.85000000  11.33804859  1.50000000
C   379.85000000  13.79756073  1.50000000
C   379.85000000  16.25707288  1.50000000
C   379.85000000  18.71658503  1.50000000
C   379.85000000  21.17609717  1.50000000
C   379.85000000  23.63560932  1.50000000
C   379.85000000  26.09512147  1.50000000
C   381.27000000  1.50000000  1.50000000
C   381.27000000  3.95951215  1.50000000
C   381.27000000  6.41902429  1.50000000
C   381.27000000  8.87853644  1.50000000
C   381.27000000  11.33804859  1.50000000
C   381.27000000  13.79756073  1.50000000
C   381.27000000  16.25707288  1.50000000
C   381.27000000  18.71658503  1.50000000
C   381.27000000  21.17609717  1.50000000
C   381.27000000  23.63560932  1.50000000
C   381.27000000  26.09512147  1.50000000
C   381.98000000  2.72975607  1.50000000
C   381.98000000  5.18926822  1.50000000
C   381.98000000  7.64878037  1.50000000
C   381.98000000  10.10829251  1.50000000
C   381.98000000  12.56780466  1.50000000
C   381.98000000  15.02731681  1.50000000
C   381.98000000  17.48682895  1.50000000
C   381.98000000  19.94634110  1.50000000
C   381.98000000  22.40585325  1.50000000
C   381.98000000  24.86536539  1.50000000
C   383.40000000  2.72975607  1.50000000
C   383.40000000  5.18926822  1.50000000
C   383.40000000  7.64878037  1.50000000
C   383.40000000  10.10829251  1.50000000
C   383.40000000  12.56780466  1.50000000
C   383.40000000  15.02731681  1.50000000
C   383.40000000  17.48682895  1.50000000
C   383.40000000  19.94634110  1.50000000
C   383.40000000  22.40585325  1.50000000
C   383.40000000  24.86536539  1.50000000
C   384.11000000  1.50000000  1.50000000
C   384.11000000  3.95951215  1.50000000
C   384.11000000  6.41902429  1.50000000
C   384.11000000  8.87853644  1.50000000
C   384.11000000  11.33804859  1.50000000
C   384.11000000  13.79756073  1.50000000
C   384.11000000  16.25707288  1.50000000
C   384.11000000  18.71658503  1.50000000
C   384.11000000  21.17609717  1.50000000
C   384.11000000  23.63560932  1.50000000
C   384.11000000  26.09512147  1.50000000
C   385.53000000  1.50000000  1.50000000
C   385.53000000  3.95951215  1.50000000
C   385.53000000  6.41902429  1.50000000
C   385.53000000  8.87853644  1.50000000
C   385.53000000  11.33804859  1.50000000
C   385.53000000  13.79756073  1.50000000
C   385.53000000  16.25707288  1.50000000
C   385.53000000  18.71658503  1.50000000
C   385.53000000  21.17609717  1.50000000
C   385.53000000  23.63560932  1.50000000
C   385.53000000  26.09512147  1.50000000
C   386.24000000  2.72975607  1.50000000
C   386.24000000  5.18926822  1.50000000
C   386.24000000  7.64878037  1.50000000
C   386.24000000  10.10829251  1.50000000
C   386.24000000  12.56780466  1.50000000
C   386.24000000  15.02731681  1.50000000
C   386.24000000  17.48682895  1.50000000
C   386.24000000  19.94634110  1.50000000
C   386.24000000  22.40585325  1.50000000
C   386.24000000  24.86536539  1.50000000
C   387.66000000  2.72975607  1.50000000
C   387.66000000  5.18926822  1.50000000
C   387.66000000  7.64878037  1.50000000
C   387.66000000  10.10829251  1.50000000
C   387.66000000  12.56780466  1.50000000
C   387.66000000  15.02731681  1.50000000
C   387.66000000  17.48682895  1.50000000
C   387.66000000  19.94634110  1.50000000
C   387.66000000  22.40585325  1.50000000
C   387.66000000  24.86536539  1.50000000
C   388.37000000  1.50000000  1.50000000
C   388.37000000  3.95951215  1.50000000
C   388.37000000  6.41902429  1.50000000
C   388.37000000  8.87853644  1.50000000
C   388.37000000  11.33804859  1.50000000
C   388.37000000  13.79756073  1.50000000
C   388.37000000  16.25707288  1.50000000
C   388.37000000  18.71658503  1.50000000
C   388.37000000  21.17609717  1.50000000
C   388.37000000  23.63560932  1.50000000
C   388.37000000  26.09512147  1.50000000
C   389.79000000  1.50000000  1.50000000
C   389.79000000  3.95951215  1.50000000
C   389.79000000  6.41902429  1.50000000
C   389.79000000  8.87853644  1.50000000
C   389.79000000  11.33804859  1.50000000
C   389.79000000  13.79756073  1.50000000
C   389.79000000  16.25707288  1.50000000
C   389.79000000  18.71658503  1.50000000
C   389.79000000  21.17609717  1.50000000
C   389.79000000  23.63560932  1.50000000
C   389.79000000  26.09512147  1.50000000
C   390.50000000  2.72975607  1.50000000
C   390.50000000  5.18926822  1.50000000
C   390.50000000  7.64878037  1.50000000
C   390.50000000  10.10829251  1.50000000
C   390.50000000  12.56780466  1.50000000
C   390.50000000  15.02731681  1.50000000
C   390.50000000  17.48682895  1.50000000
C   390.50000000  19.94634110  1.50000000
C   390.50000000  22.40585325  1.50000000
C   390.50000000  24.86536539  1.50000000
C   391.92000000  2.72975607  1.50000000
C   391.92000000  5.18926822  1.50000000
C   391.92000000  7.64878037  1.50000000
C   391.92000000  10.10829251  1.50000000
C   391.92000000  12.56780466  1.50000000
C   391.92000000  15.02731681  1.50000000
C   391.92000000  17.48682895  1.50000000
C   391.92000000  19.94634110  1.50000000
C   391.92000000  22.40585325  1.50000000
C   391.92000000  24.86536539  1.50000000
C   392.63000000  1.50000000  1.50000000
C   392.63000000  3.95951215  1.50000000
C   392.63000000  6.41902429  1.50000000
C   392.63000000  8.87853644  1.50000000
C   392.63000000  11.33804859  1.50000000
C   392.63000000  13.79756073  1.50000000
C   392.63000000  16.25707288  1.50000000
C   392.63000000  18.71658503  1.50000000
C   392.63000000  21.17609717  1.50000000
C   392.63000000  23.63560932  1.50000000
C   392.63000000  26.09512147  1.50000000
C   394.05000000  1.50000000  1.50000000
C   394.05000000  3.95951215  1.50000000
C   394.05000000  6.41902429  1.50000000
C   394.05000000  8.87853644  1.50000000
C   394.05000000  11.33804859  1.50000000
C   394.05000000  13.79756073  1.50000000
C   394.05000000  16.25707288  1.50000000
C   394.05000000  18.71658503  1.50000000
C   394.05000000  21.17609717  1.50000000
C   394.05000000  23.63560932  1.50000000
C   394.05000000  26.09512147  1.50000000
C   394.76000000  2.72975607  1.50000000
C   394.76000000  5.18926822  1.50000000
C   394.76000000  7.64878037  1.50000000
C   394.76000000  10.10829251  1.50000000
C   394.76000000  12.56780466  1.50000000
C   394.76000000  15.02731681  1.50000000
C   394.76000000  17.48682895  1.50000000
C   394.76000000  19.94634110  1.50000000
C   394.76000000  22.40585325  1.50000000
C   394.76000000  24.86536539  1.50000000
C   396.18000000  2.72975607  1.50000000
C   396.18000000  5.18926822  1.50000000
C   396.18000000  7.64878037  1.50000000
C   396.18000000  10.10829251  1.50000000
C   396.18000000  12.56780466  1.50000000
C   396.18000000  15.02731681  1.50000000
C   396.18000000  17.48682895  1.50000000
C   396.18000000  19.94634110  1.50000000
C   396.18000000  22.40585325  1.50000000
C   396.18000000  24.86536539  1.50000000
C   396.89000000  1.50000000  1.50000000
C   396.89000000  3.95951215  1.50000000
C   396.89000000  6.41902429  1.50000000
C   396.89000000  8.87853644  1.50000000
C   396.89000000  11.33804859  1.50000000
C   396.89000000  13.79756073  1.50000000
C   396.89000000  16.25707288  1.50000000
C   396.89000000  18.71658503  1.50000000
C   396.89000000  21.17609717  1.50000000
C   396.89000000  23.63560932  1.50000000
C   396.89000000  26.09512147  1.50000000
C   398.31000000  1.50000000  1.50000000
C   398.31000000  3.95951215  1.50000000
C   398.31000000  6.41902429  1.50000000
C   398.31000000  8.87853644  1.50000000
C   398.31000000  11.33804859  1.50000000
C   398.31000000  13.79756073  1.50000000
C   398.31000000  16.25707288  1.50000000
C   398.31000000  18.71658503  1.50000000
C   398.31000000  21.17609717  1.50000000
C   398.31000000  23.63560932  1.50000000
C   398.31000000  26.09512147  1.50000000
C   399.02000000  2.72975607  1.50000000
C   399.02000000  5.18926822  1.50000000
C   399.02000000  7.64878037  1.50000000
C   399.02000000  10.10829251  1.50000000
C   399.02000000  12.56780466  1.50000000
C   399.02000000  15.02731681  1.50000000
C   399.02000000  17.48682895  1.50000000
C   399.02000000  19.94634110  1.50000000
C   399.02000000  22.40585325  1.50000000
C   399.02000000  24.86536539  1.50000000
C   400.44000000  2.72975607  1.50000000
C   400.44000000  5.18926822  1.50000000
C   400.44000000  7.64878037  1.50000000
C   400.44000000  10.10829251  1.50000000
C   400.44000000  12.56780466  1.50000000
C   400.44000000  15.02731681  1.50000000
C   400.44000000  17.48682895  1.50000000
C   400.44000000  19.94634110  1.50000000
C   400.44000000  22.40585325  1.50000000
C   400.44000000  24.86536539  1.50000000
C   401.15000000  1.50000000  1.50000000
C   401.15000000  3.95951215  1.50000000
C   401.15000000  6.41902429  1.50000000
C   401.15000000  8.87853644  1.50000000
C   401.15000000  11.33804859  1.50000000
C   401.15000000  13.79756073  1.50000000
C   401.15000000  16.25707288  1.50000000
C   401.15000000  18.71658503  1.50000000
C   401.15000000  21.17609717  1.50000000
C   401.15000000  23.63560932  1.50000000
C   401.15000000  26.09512147  1.50000000
C   402.57000000  1.50000000  1.50000000
C   402.57000000  3.95951215  1.50000000
C   402.57000000  6.41902429  1.50000000
C   402.57000000  8.87853644  1.50000000
C   402.57000000  11.33804859  1.50000000
C   402.57000000  13.79756073  1.50000000
C   402.57000000  16.25707288  1.50000000
C   402.57000000  18.71658503  1.50000000
C   402.57000000  21.17609717  1.50000000
C   402.57000000  23.63560932  1.50000000
C   402.57000000  26.09512147  1.50000000
C   403.28000000  2.72975607  1.50000000
C   403.28000000  5.18926822  1.50000000
C   403.28000000  7.64878037  1.50000000
C   403.28000000  10.10829251  1.50000000
C   403.28000000  12.56780466  1.50000000
C   403.28000000  15.02731681  1.50000000
C   403.28000000  17.48682895  1.50000000
C   403.28000000  19.94634110  1.50000000
C   403.28000000  22.40585325  1.50000000
C   403.28000000  24.86536539  1.50000000
C   404.70000000  2.72975607  1.50000000
C   404.70000000  5.18926822  1.50000000
C   404.70000000  7.64878037  1.50000000
C   404.70000000  10.10829251  1.50000000
C   404.70000000  12.56780466  1.50000000
C   404.70000000  15.02731681  1.50000000
C   404.70000000  17.48682895  1.50000000
C   404.70000000  19.94634110  1.50000000
C   404.70000000  22.40585325  1.50000000
C   404.70000000  24.86536539  1.50000000
C   405.41000000  1.50000000  1.50000000
C   405.41000000  3.95951215  1.50000000
C   405.41000000  6.41902429  1.50000000
C   405.41000000  8.87853644  1.50000000
C   405.41000000  11.33804859  1.50000000
C   405.41000000  13.79756073  1.50000000
C   405.41000000  16.25707288  1.50000000
C   405.41000000  18.71658503  1.50000000
C   405.41000000  21.17609717  1.50000000
C   405.41000000  23.63560932  1.50000000
C   405.41000000  26.09512147  1.50000000
C   406.83000000  1.50000000  1.50000000
C   406.83000000  3.95951215  1.50000000
C   406.83000000  6.41902429  1.50000000
C   406.83000000  8.87853644  1.50000000
C   406.83000000  11.33804859  1.50000000
C   406.83000000  13.79756073  1.50000000
C   406.83000000  16.25707288  1.50000000
C   406.83000000  18.71658503  1.50000000
C   406.83000000  21.17609717  1.50000000
C   406.83000000  23.63560932  1.50000000
C   406.83000000  26.09512147  1.50000000
C   407.54000000  2.72975607  1.50000000
C   407.54000000  5.18926822  1.50000000
C   407.54000000  7.64878037  1.50000000
C   407.54000000  10.10829251  1.50000000
C   407.54000000  12.56780466  1.50000000
C   407.54000000  15.02731681  1.50000000
C   407.54000000  17.48682895  1.50000000
C   407.54000000  19.94634110  1.50000000
C   407.54000000  22.40585325  1.50000000
C   407.54000000  24.86536539  1.50000000
C   408.96000000  2.72975607  1.50000000
C   408.96000000  5.18926822  1.50000000
C   408.96000000  7.64878037  1.50000000
C   408.96000000  10.10829251  1.50000000
C   408.96000000  12.56780466  1.50000000
C   408.96000000  15.02731681  1.50000000
C   408.96000000  17.48682895  1.50000000
C   408.96000000  19.94634110  1.50000000
C   408.96000000  22.40585325  1.50000000
C   408.96000000  24.86536539  1.50000000
C   409.67000000  1.50000000  1.50000000
C   409.67000000  3.95951215  1.50000000
C   409.67000000  6.41902429  1.50000000
C   409.67000000  8.87853644  1.50000000
C   409.67000000  11.33804859  1.50000000
C   409.67000000  13.79756073  1.50000000
C   409.67000000  16.25707288  1.50000000
C   409.67000000  18.71658503  1.50000000
C   409.67000000  21.17609717  1.50000000
C   409.67000000  23.63560932  1.50000000
C   409.67000000  26.09512147  1.50000000
C   411.09000000  1.50000000  1.50000000
C   411.09000000  3.95951215  1.50000000
C   411.09000000  6.41902429  1.50000000
C   411.09000000  8.87853644  1.50000000
C   411.09000000  11.33804859  1.50000000
C   411.09000000  13.79756073  1.50000000
C   411.09000000  16.25707288  1.50000000
C   411.09000000  18.71658503  1.50000000
C   411.09000000  21.17609717  1.50000000
C   411.09000000  23.63560932  1.50000000
C   411.09000000  26.09512147  1.50000000
C   411.80000000  2.72975607  1.50000000
C   411.80000000  5.18926822  1.50000000
C   411.80000000  7.64878037  1.50000000
C   411.80000000  10.10829251  1.50000000
C   411.80000000  12.56780466  1.50000000
C   411.80000000  15.02731681  1.50000000
C   411.80000000  17.48682895  1.50000000
C   411.80000000  19.94634110  1.50000000
C   411.80000000  22.40585325  1.50000000
C   411.80000000  24.86536539  1.50000000
C   413.22000000  2.72975607  1.50000000
C   413.22000000  5.18926822  1.50000000
C   413.22000000  7.64878037  1.50000000
C   413.22000000  10.10829251  1.50000000
C   413.22000000  12.56780466  1.50000000
C   413.22000000  15.02731681  1.50000000
C   413.22000000  17.48682895  1.50000000
C   413.22000000  19.94634110  1.50000000
C   413.22000000  22.40585325  1.50000000
C   413.22000000  24.86536539  1.50000000
C   413.93000000  1.50000000  1.50000000
C   413.93000000  3.95951215  1.50000000
C   413.93000000  6.41902429  1.50000000
C   413.93000000  8.87853644  1.50000000
C   413.93000000  11.33804859  1.50000000
C   413.93000000  13.79756073  1.50000000
C   413.93000000  16.25707288  1.50000000
C   413.93000000  18.71658503  1.50000000
C   413.93000000  21.17609717  1.50000000
C   413.93000000  23.63560932  1.50000000
C   413.93000000  26.09512147  1.50000000
C   415.35000000  1.50000000  1.50000000
C   415.35000000  3.95951215  1.50000000
C   415.35000000  6.41902429  1.50000000
C   415.35000000  8.87853644  1.50000000
C   415.35000000  11.33804859  1.50000000
C   415.35000000  13.79756073  1.50000000
C   415.35000000  16.25707288  1.50000000
C   415.35000000  18.71658503  1.50000000
C   415.35000000  21.17609717  1.50000000
C   415.35000000  23.63560932  1.50000000
C   415.35000000  26.09512147  1.50000000
C   416.06000000  2.72975607  1.50000000
C   416.06000000  5.18926822  1.50000000
C   416.06000000  7.64878037  1.50000000
C   416.06000000  10.10829251  1.50000000
C   416.06000000  12.56780466  1.50000000
C   416.06000000  15.02731681  1.50000000
C   416.06000000  17.48682895  1.50000000
C   416.06000000  19.94634110  1.50000000
C   416.06000000  22.40585325  1.50000000
C   416.06000000  24.86536539  1.50000000
C   417.48000000  2.72975607  1.50000000
C   417.48000000  5.18926822  1.50000000
C   417.48000000  7.64878037  1.50000000
C   417.48000000  10.10829251  1.50000000
C   417.48000000  12.56780466  1.50000000
C   417.48000000  15.02731681  1.50000000
C   417.48000000  17.48682895  1.50000000
C   417.48000000  19.94634110  1.50000000
C   417.48000000  22.40585325  1.50000000
C   417.48000000  24.86536539  1.50000000
C   418.19000000  1.50000000  1.50000000
C   418.19000000  3.95951215  1.50000000
C   418.19000000  6.41902429  1.50000000
C   418.19000000  8.87853644  1.50000000
C   418.19000000  11.33804859  1.50000000
C   418.19000000  13.79756073  1.50000000
C   418.19000000  16.25707288  1.50000000
C   418.19000000  18.71658503  1.50000000
C   418.19000000  21.17609717  1.50000000
C   418.19000000  23.63560932  1.50000000
C   418.19000000  26.09512147  1.50000000
C   419.61000000  1.50000000  1.50000000
C   419.61000000  3.95951215  1.50000000
C   419.61000000  6.41902429  1.50000000
C   419.61000000  8.87853644  1.50000000
C   419.61000000  11.33804859  1.50000000
C   419.61000000  13.79756073  1.50000000
C   419.61000000  16.25707288  1.50000000
C   419.61000000  18.71658503  1.50000000
C   419.61000000  21.17609717  1.50000000
C   419.61000000  23.63560932  1.50000000
C   419.61000000  26.09512147  1.50000000
C   420.32000000  2.72975607  1.50000000
C   420.32000000  5.18926822  1.50000000
C   420.32000000  7.64878037  1.50000000
C   420.32000000  10.10829251  1.50000000
C   420.32000000  12.56780466  1.50000000
C   420.32000000  15.02731681  1.50000000
C   420.32000000  17.48682895  1.50000000
C   420.32000000  19.94634110  1.50000000
C   420.32000000  22.40585325  1.50000000
C   420.32000000  24.86536539  1.50000000
C   421.74000000  2.72975607  1.50000000
C   421.74000000  5.18926822  1.50000000
C   421.74000000  7.64878037  1.50000000
C   421.74000000  10.10829251  1.50000000
C   421.74000000  12.56780466  1.50000000
C   421.74000000  15.02731681  1.50000000
C   421.74000000  17.48682895  1.50000000
C   421.74000000  19.94634110  1.50000000
C   421.74000000  22.40585325  1.50000000
C   421.74000000  24.86536539  1.50000000
C   422.45000000  1.50000000  1.50000000
C   422.45000000  3.95951215  1.50000000
C   422.45000000  6.41902429  1.50000000
C   422.45000000  8.87853644  1.50000000
C   422.45000000  11.33804859  1.50000000
C   422.45000000  13.79756073  1.50000000
C   422.45000000  16.25707288  1.50000000
C   422.45000000  18.71658503  1.50000000
C   422.45000000  21.17609717  1.50000000
C   422.45000000  23.63560932  1.50000000
C   422.45000000  26.09512147  1.50000000
C   423.87000000  1.50000000  1.50000000
C   423.87000000  3.95951215  1.50000000
C   423.87000000  6.41902429  1.50000000
C   423.87000000  8.87853644  1.50000000
C   423.87000000  11.33804859  1.50000000
C   423.87000000  13.79756073  1.50000000
C   423.87000000  16.25707288  1.50000000
C   423.87000000  18.71658503  1.50000000
C   423.87000000  21.17609717  1.50000000
C   423.87000000  23.63560932  1.50000000
C   423.87000000  26.09512147  1.50000000
C   424.58000000  2.72975607  1.50000000
C   424.58000000  5.18926822  1.50000000
C   424.58000000  7.64878037  1.50000000
C   424.58000000  10.10829251  1.50000000
C   424.58000000  12.56780466  1.50000000
C   424.58000000  15.02731681  1.50000000
C   424.58000000  17.48682895  1.50000000
C   424.58000000  19.94634110  1.50000000
C   424.58000000  22.40585325  1.50000000
C   424.58000000  24.86536539  1.50000000
C   426.00000000  2.72975607  1.50000000
C   426.00000000  5.18926822  1.50000000
C   426.00000000  7.64878037  1.50000000
C   426.00000000  10.10829251  1.50000000
C   426.00000000  12.56780466  1.50000000
C   426.00000000  15.02731681  1.50000000
C   426.00000000  17.48682895  1.50000000
C   426.00000000  19.94634110  1.50000000
C   426.00000000  22.40585325  1.50000000
C   426.00000000  24.86536539  1.50000000
C   426.71000000  1.50000000  1.50000000
C   426.71000000  3.95951215  1.50000000
C   426.71000000  6.41902429  1.50000000
C   426.71000000  8.87853644  1.50000000
C   426.71000000  11.33804859  1.50000000
C   426.71000000  13.79756073  1.50000000
C   426.71000000  16.25707288  1.50000000
C   426.71000000  18.71658503  1.50000000
C   426.71000000  21.17609717  1.50000000
C   426.71000000  23.63560932  1.50000000
C   426.71000000  26.09512147  1.50000000
C   428.13000000  1.50000000  1.50000000
C   428.13000000  3.95951215  1.50000000
C   428.13000000  6.41902429  1.50000000
C   428.13000000  8.87853644  1.50000000
C   428.13000000  11.33804859  1.50000000
C   428.13000000  13.79756073  1.50000000
C   428.13000000  16.25707288  1.50000000
C   428.13000000  18.71658503  1.50000000
C   428.13000000  21.17609717  1.50000000
C   428.13000000  23.63560932  1.50000000
C   428.13000000  26.09512147  1.50000000
C   428.84000000  2.72975607  1.50000000
C   428.84000000  5.18926822  1.50000000
C   428.84000000  7.64878037  1.50000000
C   428.84000000  10.10829251  1.50000000
C   428.84000000  12.56780466  1.50000000
C   428.84000000  15.02731681  1.50000000
C   428.84000000  17.48682895  1.50000000
C   428.84000000  19.94634110  1.50000000
C   428.84000000  22.40585325  1.50000000
C   428.84000000  24.86536539  1.50000000
C   430.26000000  2.72975607  1.50000000
C   430.26000000  5.18926822  1.50000000
C   430.26000000  7.64878037  1.50000000
C   430.26000000  10.10829251  1.50000000
C   430.26000000  12.56780466  1.50000000
C   430.26000000  15.02731681  1.50000000
C   430.26000000  17.48682895  1.50000000
C   430.26000000  19.94634110  1.50000000
C   430.26000000  22.40585325  1.50000000
C   430.26000000  24.86536539  1.50000000
C   430.97000000  1.50000000  1.50000000
C   430.97000000  3.95951215  1.50000000
C   430.97000000  6.41902429  1.50000000
C   430.97000000  8.87853644  1.50000000
C   430.97000000  11.33804859  1.50000000
C   430.97000000  13.79756073  1.50000000
C   430.97000000  16.25707288  1.50000000
C   430.97000000  18.71658503  1.50000000
C   430.97000000  21.17609717  1.50000000
C   430.97000000  23.63560932  1.50000000
C   430.97000000  26.09512147  1.50000000
C   432.39000000  1.50000000  1.50000000
C   432.39000000  3.95951215  1.50000000
C   432.39000000  6.41902429  1.50000000
C   432.39000000  8.87853644  1.50000000
C   432.39000000  11.33804859  1.50000000
C   432.39000000  13.79756073  1.50000000
C   432.39000000  16.25707288  1.50000000
C   432.39000000  18.71658503  1.50000000
C   432.39000000  21.17609717  1.50000000
C   432.39000000  23.63560932  1.50000000
C   432.39000000  26.09512147  1.50000000
C   433.10000000  2.72975607  1.50000000
C   433.10000000  5.18926822  1.50000000
C   433.10000000  7.64878037  1.50000000
C   433.10000000  10.10829251  1.50000000
C   433.10000000  12.56780466  1.50000000
C   433.10000000  15.02731681  1.50000000
C   433.10000000  17.48682895  1.50000000
C   433.10000000  19.94634110  1.50000000
C   433.10000000  22.40585325  1.50000000
C   433.10000000  24.86536539  1.50000000
C   434.52000000  2.72975607  1.50000000
C   434.52000000  5.18926822  1.50000000
C   434.52000000  7.64878037  1.50000000
C   434.52000000  10.10829251  1.50000000
C   434.52000000  12.56780466  1.50000000
C   434.52000000  15.02731681  1.50000000
C   434.52000000  17.48682895  1.50000000
C   434.52000000  19.94634110  1.50000000
C   434.52000000  22.40585325  1.50000000
C   434.52000000  24.86536539  1.50000000
C   435.23000000  1.50000000  1.50000000
C   435.23000000  3.95951215  1.50000000
C   435.23000000  6.41902429  1.50000000
C   435.23000000  8.87853644  1.50000000
C   435.23000000  11.33804859  1.50000000
C   435.23000000  13.79756073  1.50000000
C   435.23000000  16.25707288  1.50000000
C   435.23000000  18.71658503  1.50000000
C   435.23000000  21.17609717  1.50000000
C   435.23000000  23.63560932  1.50000000
C   435.23000000  26.09512147  1.50000000
C   436.65000000  1.50000000  1.50000000
C   436.65000000  3.95951215  1.50000000
C   436.65000000  6.41902429  1.50000000
C   436.65000000  8.87853644  1.50000000
C   436.65000000  11.33804859  1.50000000
C   436.65000000  13.79756073  1.50000000
C   436.65000000  16.25707288  1.50000000
C   436.65000000  18.71658503  1.50000000
C   436.65000000  21.17609717  1.50000000
C   436.65000000  23.63560932  1.50000000
C   436.65000000  26.09512147  1.50000000
C   437.36000000  2.72975607  1.50000000
C   437.36000000  5.18926822  1.50000000
C   437.36000000  7.64878037  1.50000000
C   437.36000000  10.10829251  1.50000000
C   437.36000000  12.56780466  1.50000000
C   437.36000000  15.02731681  1.50000000
C   437.36000000  17.48682895  1.50000000
C   437.36000000  19.94634110  1.50000000
C   437.36000000  22.40585325  1.50000000
C   437.36000000  24.86536539  1.50000000
C   438.78000000  2.72975607  1.50000000
C   438.78000000  5.18926822  1.50000000
C   438.78000000  7.64878037  1.50000000
C   438.78000000  10.10829251  1.50000000
C   438.78000000  12.56780466  1.50000000
C   438.78000000  15.02731681  1.50000000
C   438.78000000  17.48682895  1.50000000
C   438.78000000  19.94634110  1.50000000
C   438.78000000  22.40585325  1.50000000
C   438.78000000  24.86536539  1.50000000
C   439.49000000  1.50000000  1.50000000
C   439.49000000  3.95951215  1.50000000
C   439.49000000  6.41902429  1.50000000
C   439.49000000  8.87853644  1.50000000
C   439.49000000  11.33804859  1.50000000
C   439.49000000  13.79756073  1.50000000
C   439.49000000  16.25707288  1.50000000
C   439.49000000  18.71658503  1.50000000
C   439.49000000  21.17609717  1.50000000
C   439.49000000  23.63560932  1.50000000
C   439.49000000  26.09512147  1.50000000
C   440.91000000  1.50000000  1.50000000
C   440.91000000  3.95951215  1.50000000
C   440.91000000  6.41902429  1.50000000
C   440.91000000  8.87853644  1.50000000
C   440.91000000  11.33804859  1.50000000
C   440.91000000  13.79756073  1.50000000
C   440.91000000  16.25707288  1.50000000
C   440.91000000  18.71658503  1.50000000
C   440.91000000  21.17609717  1.50000000
C   440.91000000  23.63560932  1.50000000
C   440.91000000  26.09512147  1.50000000
C   441.62000000  2.72975607  1.50000000
C   441.62000000  5.18926822  1.50000000
C   441.62000000  7.64878037  1.50000000
C   441.62000000  10.10829251  1.50000000
C   441.62000000  12.56780466  1.50000000
C   441.62000000  15.02731681  1.50000000
C   441.62000000  17.48682895  1.50000000
C   441.62000000  19.94634110  1.50000000
C   441.62000000  22.40585325  1.50000000
C   441.62000000  24.86536539  1.50000000
C   443.04000000  2.72975607  1.50000000
C   443.04000000  5.18926822  1.50000000
C   443.04000000  7.64878037  1.50000000
C   443.04000000  10.10829251  1.50000000
C   443.04000000  12.56780466  1.50000000
C   443.04000000  15.02731681  1.50000000
C   443.04000000  17.48682895  1.50000000
C   443.04000000  19.94634110  1.50000000
C   443.04000000  22.40585325  1.50000000
C   443.04000000  24.86536539  1.50000000
C   443.75000000  1.50000000  1.50000000
C   443.75000000  3.95951215  1.50000000
C   443.75000000  6.41902429  1.50000000
C   443.75000000  8.87853644  1.50000000
C   443.75000000  11.33804859  1.50000000
C   443.75000000  13.79756073  1.50000000
C   443.75000000  16.25707288  1.50000000
C   443.75000000  18.71658503  1.50000000
C   443.75000000  21.17609717  1.50000000
C   443.75000000  23.63560932  1.50000000
C   443.75000000  26.09512147  1.50000000
C   445.17000000  1.50000000  1.50000000
C   445.17000000  3.95951215  1.50000000
C   445.17000000  6.41902429  1.50000000
C   445.17000000  8.87853644  1.50000000
C   445.17000000  11.33804859  1.50000000
C   445.17000000  13.79756073  1.50000000
C   445.17000000  16.25707288  1.50000000
C   445.17000000  18.71658503  1.50000000
C   445.17000000  21.17609717  1.50000000
C   445.17000000  23.63560932  1.50000000
C   445.17000000  26.09512147  1.50000000
C   445.88000000  2.72975607  1.50000000
C   445.88000000  5.18926822  1.50000000
C   445.88000000  7.64878037  1.50000000
C   445.88000000  10.10829251  1.50000000
C   445.88000000  12.56780466  1.50000000
C   445.88000000  15.02731681  1.50000000
C   445.88000000  17.48682895  1.50000000
C   445.88000000  19.94634110  1.50000000
C   445.88000000  22.40585325  1.50000000
C   445.88000000  24.86536539  1.50000000
C   447.30000000  2.72975607  1.50000000
C   447.30000000  5.18926822  1.50000000
C   447.30000000  7.64878037  1.50000000
C   447.30000000  10.10829251  1.50000000
C   447.30000000  12.56780466  1.50000000
C   447.30000000  15.02731681  1.50000000
C   447.30000000  17.48682895  1.50000000
C   447.30000000  19.94634110  1.50000000
C   447.30000000  22.40585325  1.50000000
C   447.30000000  24.86536539  1.50000000
C   448.01000000  1.50000000  1.50000000
C   448.01000000  3.95951215  1.50000000
C   448.01000000  6.41902429  1.50000000
C   448.01000000  8.87853644  1.50000000
C   448.01000000  11.33804859  1.50000000
C   448.01000000  13.79756073  1.50000000
C   448.01000000  16.25707288  1.50000000
C   448.01000000  18.71658503  1.50000000
C   448.01000000  21.17609717  1.50000000
C   448.01000000  23.63560932  1.50000000
C   448.01000000  26.09512147  1.50000000
C   449.43000000  1.50000000  1.50000000
C   449.43000000  3.95951215  1.50000000
C   449.43000000  6.41902429  1.50000000
C   449.43000000  8.87853644  1.50000000
C   449.43000000  11.33804859  1.50000000
C   449.43000000  13.79756073  1.50000000
C   449.43000000  16.25707288  1.50000000
C   449.43000000  18.71658503  1.50000000
C   449.43000000  21.17609717  1.50000000
C   449.43000000  23.63560932  1.50000000
C   449.43000000  26.09512147  1.50000000
C   450.14000000  2.72975607  1.50000000
C   450.14000000  5.18926822  1.50000000
C   450.14000000  7.64878037  1.50000000
C   450.14000000  10.10829251  1.50000000
C   450.14000000  12.56780466  1.50000000
C   450.14000000  15.02731681  1.50000000
C   450.14000000  17.48682895  1.50000000
C   450.14000000  19.94634110  1.50000000
C   450.14000000  22.40585325  1.50000000
C   450.14000000  24.86536539  1.50000000
C   451.56000000  2.72975607  1.50000000
C   451.56000000  5.18926822  1.50000000
C   451.56000000  7.64878037  1.50000000
C   451.56000000  10.10829251  1.50000000
C   451.56000000  12.56780466  1.50000000
C   451.56000000  15.02731681  1.50000000
C   451.56000000  17.48682895  1.50000000
C   451.56000000  19.94634110  1.50000000
C   451.56000000  22.40585325  1.50000000
C   451.56000000  24.86536539  1.50000000
C   452.27000000  1.50000000  1.50000000
C   452.27000000  3.95951215  1.50000000
C   452.27000000  6.41902429  1.50000000
C   452.27000000  8.87853644  1.50000000
C   452.27000000  11.33804859  1.50000000
C   452.27000000  13.79756073  1.50000000
C   452.27000000  16.25707288  1.50000000
C   452.27000000  18.71658503  1.50000000
C   452.27000000  21.17609717  1.50000000
C   452.27000000  23.63560932  1.50000000
C   452.27000000  26.09512147  1.50000000
C   453.69000000  1.50000000  1.50000000
C   453.69000000  3.95951215  1.50000000
C   453.69000000  6.41902429  1.50000000
C   453.69000000  8.87853644  1.50000000
C   453.69000000  11.33804859  1.50000000
C   453.69000000  13.79756073  1.50000000
C   453.69000000  16.25707288  1.50000000
C   453.69000000  18.71658503  1.50000000
C   453.69000000  21.17609717  1.50000000
C   453.69000000  23.63560932  1.50000000
C   453.69000000  26.09512147  1.50000000
C   454.40000000  2.72975607  1.50000000
C   454.40000000  5.18926822  1.50000000
C   454.40000000  7.64878037  1.50000000
C   454.40000000  10.10829251  1.50000000
C   454.40000000  12.56780466  1.50000000
C   454.40000000  15.02731681  1.50000000
C   454.40000000  17.48682895  1.50000000
C   454.40000000  19.94634110  1.50000000
C   454.40000000  22.40585325  1.50000000
C   454.40000000  24.86536539  1.50000000
C   455.82000000  2.72975607  1.50000000
C   455.82000000  5.18926822  1.50000000
C   455.82000000  7.64878037  1.50000000
C   455.82000000  10.10829251  1.50000000
C   455.82000000  12.56780466  1.50000000
C   455.82000000  15.02731681  1.50000000
C   455.82000000  17.48682895  1.50000000
C   455.82000000  19.94634110  1.50000000
C   455.82000000  22.40585325  1.50000000
C   455.82000000  24.86536539  1.50000000
C   456.53000000  1.50000000  1.50000000
C   456.53000000  3.95951215  1.50000000
C   456.53000000  6.41902429  1.50000000
C   456.53000000  8.87853644  1.50000000
C   456.53000000  11.33804859  1.50000000
C   456.53000000  13.79756073  1.50000000
C   456.53000000  16.25707288  1.50000000
C   456.53000000  18.71658503  1.50000000
C   456.53000000  21.17609717  1.50000000
C   456.53000000  23.63560932  1.50000000
C   456.53000000  26.09512147  1.50000000
C   457.95000000  1.50000000  1.50000000
C   457.95000000  3.95951215  1.50000000
C   457.95000000  6.41902429  1.50000000
C   457.95000000  8.87853644  1.50000000
C   457.95000000  11.33804859  1.50000000
C   457.95000000  13.79756073  1.50000000
C   457.95000000  16.25707288  1.50000000
C   457.95000000  18.71658503  1.50000000
C   457.95000000  21.17609717  1.50000000
C   457.95000000  23.63560932  1.50000000
C   457.95000000  26.09512147  1.50000000
C   458.66000000  2.72975607  1.50000000
C   458.66000000  5.18926822  1.50000000
C   458.66000000  7.64878037  1.50000000
C   458.66000000  10.10829251  1.50000000
C   458.66000000  12.56780466  1.50000000
C   458.66000000  15.02731681  1.50000000
C   458.66000000  17.48682895  1.50000000
C   458.66000000  19.94634110  1.50000000
C   458.66000000  22.40585325  1.50000000
C   458.66000000  24.86536539  1.50000000
C   460.08000000  2.72975607  1.50000000
C   460.08000000  5.18926822  1.50000000
C   460.08000000  7.64878037  1.50000000
C   460.08000000  10.10829251  1.50000000
C   460.08000000  12.56780466  1.50000000
C   460.08000000  15.02731681  1.50000000
C   460.08000000  17.48682895  1.50000000
C   460.08000000  19.94634110  1.50000000
C   460.08000000  22.40585325  1.50000000
C   460.08000000  24.86536539  1.50000000
C   460.79000000  1.50000000  1.50000000
C   460.79000000  3.95951215  1.50000000
C   460.79000000  6.41902429  1.50000000
C   460.79000000  8.87853644  1.50000000
C   460.79000000  11.33804859  1.50000000
C   460.79000000  13.79756073  1.50000000
C   460.79000000  16.25707288  1.50000000
C   460.79000000  18.71658503  1.50000000
C   460.79000000  21.17609717  1.50000000
C   460.79000000  23.63560932  1.50000000
C   460.79000000  26.09512147  1.50000000
C   462.21000000  1.50000000  1.50000000
C   462.21000000  3.95951215  1.50000000
C   462.21000000  6.41902429  1.50000000
C   462.21000000  8.87853644  1.50000000
C   462.21000000  11.33804859  1.50000000
C   462.21000000  13.79756073  1.50000000
C   462.21000000  16.25707288  1.50000000
C   462.21000000  18.71658503  1.50000000
C   462.21000000  21.17609717  1.50000000
C   462.21000000  23.63560932  1.50000000
C   462.21000000  26.09512147  1.50000000
C   462.92000000  2.72975607  1.50000000
C   462.92000000  5.18926822  1.50000000
C   462.92000000  7.64878037  1.50000000
C   462.92000000  10.10829251  1.50000000
C   462.92000000  12.56780466  1.50000000
C   462.92000000  15.02731681  1.50000000
C   462.92000000  17.48682895  1.50000000
C   462.92000000  19.94634110  1.50000000
C   462.92000000  22.40585325  1.50000000
C   462.92000000  24.86536539  1.50000000
C   464.34000000  2.72975607  1.50000000
C   464.34000000  5.18926822  1.50000000
C   464.34000000  7.64878037  1.50000000
C   464.34000000  10.10829251  1.50000000
C   464.34000000  12.56780466  1.50000000
C   464.34000000  15.02731681  1.50000000
C   464.34000000  17.48682895  1.50000000
C   464.34000000  19.94634110  1.50000000
C   464.34000000  22.40585325  1.50000000
C   464.34000000  24.86536539  1.50000000
C   465.05000000  1.50000000  1.50000000
C   465.05000000  3.95951215  1.50000000
C   465.05000000  6.41902429  1.50000000
C   465.05000000  8.87853644  1.50000000
C   465.05000000  11.33804859  1.50000000
C   465.05000000  13.79756073  1.50000000
C   465.05000000  16.25707288  1.50000000
C   465.05000000  18.71658503  1.50000000
C   465.05000000  21.17609717  1.50000000
C   465.05000000  23.63560932  1.50000000
C   465.05000000  26.09512147  1.50000000
C   466.47000000  1.50000000  1.50000000
C   466.47000000  3.95951215  1.50000000
C   466.47000000  6.41902429  1.50000000
C   466.47000000  8.87853644  1.50000000
C   466.47000000  11.33804859  1.50000000
C   466.47000000  13.79756073  1.50000000
C   466.47000000  16.25707288  1.50000000
C   466.47000000  18.71658503  1.50000000
C   466.47000000  21.17609717  1.50000000
C   466.47000000  23.63560932  1.50000000
C   466.47000000  26.09512147  1.50000000
C   467.18000000  2.72975607  1.50000000
C   467.18000000  5.18926822  1.50000000
C   467.18000000  7.64878037  1.50000000
C   467.18000000  10.10829251  1.50000000
C   467.18000000  12.56780466  1.50000000
C   467.18000000  15.02731681  1.50000000
C   467.18000000  17.48682895  1.50000000
C   467.18000000  19.94634110  1.50000000
C   467.18000000  22.40585325  1.50000000
C   467.18000000  24.86536539  1.50000000
C   468.60000000  2.72975607  1.50000000
C   468.60000000  5.18926822  1.50000000
C   468.60000000  7.64878037  1.50000000
C   468.60000000  10.10829251  1.50000000
C   468.60000000  12.56780466  1.50000000
C   468.60000000  15.02731681  1.50000000
C   468.60000000  17.48682895  1.50000000
C   468.60000000  19.94634110  1.50000000
C   468.60000000  22.40585325  1.50000000
C   468.60000000  24.86536539  1.50000000
C   469.31000000  1.50000000  1.50000000
C   469.31000000  3.95951215  1.50000000
C   469.31000000  6.41902429  1.50000000
C   469.31000000  8.87853644  1.50000000
C   469.31000000  11.33804859  1.50000000
C   469.31000000  13.79756073  1.50000000
C   469.31000000  16.25707288  1.50000000
C   469.31000000  18.71658503  1.50000000
C   469.31000000  21.17609717  1.50000000
C   469.31000000  23.63560932  1.50000000
C   469.31000000  26.09512147  1.50000000
C   470.73000000  1.50000000  1.50000000
C   470.73000000  3.95951215  1.50000000
C   470.73000000  6.41902429  1.50000000
C   470.73000000  8.87853644  1.50000000
C   470.73000000  11.33804859  1.50000000
C   470.73000000  13.79756073  1.50000000
C   470.73000000  16.25707288  1.50000000
C   470.73000000  18.71658503  1.50000000
C   470.73000000  21.17609717  1.50000000
C   470.73000000  23.63560932  1.50000000
C   470.73000000  26.09512147  1.50000000
C   471.44000000  2.72975607  1.50000000
C   471.44000000  5.18926822  1.50000000
C   471.44000000  7.64878037  1.50000000
C   471.44000000  10.10829251  1.50000000
C   471.44000000  12.56780466  1.50000000
C   471.44000000  15.02731681  1.50000000
C   471.44000000  17.48682895  1.50000000
C   471.44000000  19.94634110  1.50000000
C   471.44000000  22.40585325  1.50000000
C   471.44000000  24.86536539  1.50000000
C   472.86000000  2.72975607  1.50000000
C   472.86000000  5.18926822  1.50000000
C   472.86000000  7.64878037  1.50000000
C   472.86000000  10.10829251  1.50000000
C   472.86000000  12.56780466  1.50000000
C   472.86000000  15.02731681  1.50000000
C   472.86000000  17.48682895  1.50000000
C   472.86000000  19.94634110  1.50000000
C   472.86000000  22.40585325  1.50000000
C   472.86000000  24.86536539  1.50000000
C   473.57000000  1.50000000  1.50000000
C   473.57000000  3.95951215  1.50000000
C   473.57000000  6.41902429  1.50000000
C   473.57000000  8.87853644  1.50000000
C   473.57000000  11.33804859  1.50000000
C   473.57000000  13.79756073  1.50000000
C   473.57000000  16.25707288  1.50000000
C   473.57000000  18.71658503  1.50000000
C   473.57000000  21.17609717  1.50000000
C   473.57000000  23.63560932  1.50000000
C   473.57000000  26.09512147  1.50000000
C   474.99000000  1.50000000  1.50000000
C   474.99000000  3.95951215  1.50000000
C   474.99000000  6.41902429  1.50000000
C   474.99000000  8.87853644  1.50000000
C   474.99000000  11.33804859  1.50000000
C   474.99000000  13.79756073  1.50000000
C   474.99000000  16.25707288  1.50000000
C   474.99000000  18.71658503  1.50000000
C   474.99000000  21.17609717  1.50000000
C   474.99000000  23.63560932  1.50000000
C   474.99000000  26.09512147  1.50000000
C   475.70000000  2.72975607  1.50000000
C   475.70000000  5.18926822  1.50000000
C   475.70000000  7.64878037  1.50000000
C   475.70000000  10.10829251  1.50000000
C   475.70000000  12.56780466  1.50000000
C   475.70000000  15.02731681  1.50000000
C   475.70000000  17.48682895  1.50000000
C   475.70000000  19.94634110  1.50000000
C   475.70000000  22.40585325  1.50000000
C   475.70000000  24.86536539  1.50000000
C   477.12000000  2.72975607  1.50000000
C   477.12000000  5.18926822  1.50000000
C   477.12000000  7.64878037  1.50000000
C   477.12000000  10.10829251  1.50000000
C   477.12000000  12.56780466  1.50000000
C   477.12000000  15.02731681  1.50000000
C   477.12000000  17.48682895  1.50000000
C   477.12000000  19.94634110  1.50000000
C   477.12000000  22.40585325  1.50000000
C   477.12000000  24.86536539  1.50000000
C   477.83000000  1.50000000  1.50000000
C   477.83000000  3.95951215  1.50000000
C   477.83000000  6.41902429  1.50000000
C   477.83000000  8.87853644  1.50000000
C   477.83000000  11.33804859  1.50000000
C   477.83000000  13.79756073  1.50000000
C   477.83000000  16.25707288  1.50000000
C   477.83000000  18.71658503  1.50000000
C   477.83000000  21.17609717  1.50000000
C   477.83000000  23.63560932  1.50000000
C   477.83000000  26.09512147  1.50000000
C   479.25000000  1.50000000  1.50000000
C   479.25000000  3.95951215  1.50000000
C   479.25000000  6.41902429  1.50000000
C   479.25000000  8.87853644  1.50000000
C   479.25000000  11.33804859  1.50000000
C   479.25000000  13.79756073  1.50000000
C   479.25000000  16.25707288  1.50000000
C   479.25000000  18.71658503  1.50000000
C   479.25000000  21.17609717  1.50000000
C   479.25000000  23.63560932  1.50000000
C   479.25000000  26.09512147  1.50000000
C   479.96000000  2.72975607  1.50000000
C   479.96000000  5.18926822  1.50000000
C   479.96000000  7.64878037  1.50000000
C   479.96000000  10.10829251  1.50000000
C   479.96000000  12.56780466  1.50000000
C   479.96000000  15.02731681  1.50000000
C   479.96000000  17.48682895  1.50000000
C   479.96000000  19.94634110  1.50000000
C   479.96000000  22.40585325  1.50000000
C   479.96000000  24.86536539  1.50000000
C   481.38000000  2.72975607  1.50000000
C   481.38000000  5.18926822  1.50000000
C   481.38000000  7.64878037  1.50000000
C   481.38000000  10.10829251  1.50000000
C   481.38000000  12.56780466  1.50000000
C   481.38000000  15.02731681  1.50000000
C   481.38000000  17.48682895  1.50000000
C   481.38000000  19.94634110  1.50000000
C   481.38000000  22.40585325  1.50000000
C   481.38000000  24.86536539  1.50000000
C   482.09000000  1.50000000  1.50000000
C   482.09000000  3.95951215  1.50000000
C   482.09000000  6.41902429  1.50000000
C   482.09000000  8.87853644  1.50000000
C   482.09000000  11.33804859  1.50000000
C   482.09000000  13.79756073  1.50000000
C   482.09000000  16.25707288  1.50000000
C   482.09000000  18.71658503  1.50000000
C   482.09000000  21.17609717  1.50000000
C   482.09000000  23.63560932  1.50000000
C   482.09000000  26.09512147  1.50000000
C   483.51000000  1.50000000  1.50000000
C   483.51000000  3.95951215  1.50000000
C   483.51000000  6.41902429  1.50000000
C   483.51000000  8.87853644  1.50000000
C   483.51000000  11.33804859  1.50000000
C   483.51000000  13.79756073  1.50000000
C   483.51000000  16.25707288  1.50000000
C   483.51000000  18.71658503  1.50000000
C   483.51000000  21.17609717  1.50000000
C   483.51000000  23.63560932  1.50000000
C   483.51000000  26.09512147  1.50000000
C   484.22000000  2.72975607  1.50000000
C   484.22000000  5.18926822  1.50000000
C   484.22000000  7.64878037  1.50000000
C   484.22000000  10.10829251  1.50000000
C   484.22000000  12.56780466  1.50000000
C   484.22000000  15.02731681  1.50000000
C   484.22000000  17.48682895  1.50000000
C   484.22000000  19.94634110  1.50000000
C   484.22000000  22.40585325  1.50000000
C   484.22000000  24.86536539  1.50000000
C   485.64000000  2.72975607  1.50000000
C   485.64000000  5.18926822  1.50000000
C   485.64000000  7.64878037  1.50000000
C   485.64000000  10.10829251  1.50000000
C   485.64000000  12.56780466  1.50000000
C   485.64000000  15.02731681  1.50000000
C   485.64000000  17.48682895  1.50000000
C   485.64000000  19.94634110  1.50000000
C   485.64000000  22.40585325  1.50000000
C   485.64000000  24.86536539  1.50000000
C   486.35000000  1.50000000  1.50000000
C   486.35000000  3.95951215  1.50000000
C   486.35000000  6.41902429  1.50000000
C   486.35000000  8.87853644  1.50000000
C   486.35000000  11.33804859  1.50000000
C   486.35000000  13.79756073  1.50000000
C   486.35000000  16.25707288  1.50000000
C   486.35000000  18.71658503  1.50000000
C   486.35000000  21.17609717  1.50000000
C   486.35000000  23.63560932  1.50000000
C   486.35000000  26.09512147  1.50000000
C   487.77000000  1.50000000  1.50000000
C   487.77000000  3.95951215  1.50000000
C   487.77000000  6.41902429  1.50000000
C   487.77000000  8.87853644  1.50000000
C   487.77000000  11.33804859  1.50000000
C   487.77000000  13.79756073  1.50000000
C   487.77000000  16.25707288  1.50000000
C   487.77000000  18.71658503  1.50000000
C   487.77000000  21.17609717  1.50000000
C   487.77000000  23.63560932  1.50000000
C   487.77000000  26.09512147  1.50000000
C   488.48000000  2.72975607  1.50000000
C   488.48000000  5.18926822  1.50000000
C   488.48000000  7.64878037  1.50000000
C   488.48000000  10.10829251  1.50000000
C   488.48000000  12.56780466  1.50000000
C   488.48000000  15.02731681  1.50000000
C   488.48000000  17.48682895  1.50000000
C   488.48000000  19.94634110  1.50000000
C   488.48000000  22.40585325  1.50000000
C   488.48000000  24.86536539  1.50000000
C   489.90000000  2.72975607  1.50000000
C   489.90000000  5.18926822  1.50000000
C   489.90000000  7.64878037  1.50000000
C   489.90000000  10.10829251  1.50000000
C   489.90000000  12.56780466  1.50000000
C   489.90000000  15.02731681  1.50000000
C   489.90000000  17.48682895  1.50000000
C   489.90000000  19.94634110  1.50000000
C   489.90000000  22.40585325  1.50000000
C   489.90000000  24.86536539  1.50000000
C   490.61000000  1.50000000  1.50000000
C   490.61000000  3.95951215  1.50000000
C   490.61000000  6.41902429  1.50000000
C   490.61000000  8.87853644  1.50000000
C   490.61000000  11.33804859  1.50000000
C   490.61000000  13.79756073  1.50000000
C   490.61000000  16.25707288  1.50000000
C   490.61000000  18.71658503  1.50000000
C   490.61000000  21.17609717  1.50000000
C   490.61000000  23.63560932  1.50000000
C   490.61000000  26.09512147  1.50000000
C   492.03000000  1.50000000  1.50000000
C   492.03000000  3.95951215  1.50000000
C   492.03000000  6.41902429  1.50000000
C   492.03000000  8.87853644  1.50000000
C   492.03000000  11.33804859  1.50000000
C   492.03000000  13.79756073  1.50000000
C   492.03000000  16.25707288  1.50000000
C   492.03000000  18.71658503  1.50000000
C   492.03000000  21.17609717  1.50000000
C   492.03000000  23.63560932  1.50000000
C   492.03000000  26.09512147  1.50000000
C   492.74000000  2.72975607  1.50000000
C   492.74000000  5.18926822  1.50000000
C   492.74000000  7.64878037  1.50000000
C   492.74000000  10.10829251  1.50000000
C   492.74000000  12.56780466  1.50000000
C   492.74000000  15.02731681  1.50000000
C   492.74000000  17.48682895  1.50000000
C   492.74000000  19.94634110  1.50000000
C   492.74000000  22.40585325  1.50000000
C   492.74000000  24.86536539  1.50000000
C   494.16000000  2.72975607  1.50000000
C   494.16000000  5.18926822  1.50000000
C   494.16000000  7.64878037  1.50000000
C   494.16000000  10.10829251  1.50000000
C   494.16000000  12.56780466  1.50000000
C   494.16000000  15.02731681  1.50000000
C   494.16000000  17.48682895  1.50000000
C   494.16000000  19.94634110  1.50000000
C   494.16000000  22.40585325  1.50000000
C   494.16000000  24.86536539  1.50000000
C   494.87000000  1.50000000  1.50000000
C   494.87000000  3.95951215  1.50000000
C   494.87000000  6.41902429  1.50000000
C   494.87000000  8.87853644  1.50000000
C   494.87000000  11.33804859  1.50000000
C   494.87000000  13.79756073  1.50000000
C   494.87000000  16.25707288  1.50000000
C   494.87000000  18.71658503  1.50000000
C   494.87000000  21.17609717  1.50000000
C   494.87000000  23.63560932  1.50000000
C   494.87000000  26.09512147  1.50000000
C   496.29000000  1.50000000  1.50000000
C   496.29000000  3.95951215  1.50000000
C   496.29000000  6.41902429  1.50000000
C   496.29000000  8.87853644  1.50000000
C   496.29000000  11.33804859  1.50000000
C   496.29000000  13.79756073  1.50000000
C   496.29000000  16.25707288  1.50000000
C   496.29000000  18.71658503  1.50000000
C   496.29000000  21.17609717  1.50000000
C   496.29000000  23.63560932  1.50000000
C   496.29000000  26.09512147  1.50000000
C   497.00000000  2.72975607  1.50000000
C   497.00000000  5.18926822  1.50000000
C   497.00000000  7.64878037  1.50000000
C   497.00000000  10.10829251  1.50000000
C   497.00000000  12.56780466  1.50000000
C   497.00000000  15.02731681  1.50000000
C   497.00000000  17.48682895  1.50000000
C   497.00000000  19.94634110  1.50000000
C   497.00000000  22.40585325  1.50000000
C   497.00000000  24.86536539  1.50000000
C   498.42000000  2.72975607  1.50000000
C   498.42000000  5.18926822  1.50000000
C   498.42000000  7.64878037  1.50000000
C   498.42000000  10.10829251  1.50000000
C   498.42000000  12.56780466  1.50000000
C   498.42000000  15.02731681  1.50000000
C   498.42000000  17.48682895  1.50000000
C   498.42000000  19.94634110  1.50000000
C   498.42000000  22.40585325  1.50000000
C   498.42000000  24.86536539  1.50000000
C   499.13000000  1.50000000  1.50000000
C   499.13000000  3.95951215  1.50000000
C   499.13000000  6.41902429  1.50000000
C   499.13000000  8.87853644  1.50000000
C   499.13000000  11.33804859  1.50000000
C   499.13000000  13.79756073  1.50000000
C   499.13000000  16.25707288  1.50000000
C   499.13000000  18.71658503  1.50000000
C   499.13000000  21.17609717  1.50000000
C   499.13000000  23.63560932  1.50000000
C   499.13000000  26.09512147  1.50000000
C   500.55000000  1.50000000  1.50000000
C   500.55000000  3.95951215  1.50000000
C   500.55000000  6.41902429  1.50000000
C   500.55000000  8.87853644  1.50000000
C   500.55000000  11.33804859  1.50000000
C   500.55000000  13.79756073  1.50000000
C   500.55000000  16.25707288  1.50000000
C   500.55000000  18.71658503  1.50000000
C   500.55000000  21.17609717  1.50000000
C   500.55000000  23.63560932  1.50000000
C   500.55000000  26.09512147  1.50000000
C   501.26000000  2.72975607  1.50000000
C   501.26000000  5.18926822  1.50000000
C   501.26000000  7.64878037  1.50000000
C   501.26000000  10.10829251  1.50000000
C   501.26000000  12.56780466  1.50000000
C   501.26000000  15.02731681  1.50000000
C   501.26000000  17.48682895  1.50000000
C   501.26000000  19.94634110  1.50000000
C   501.26000000  22.40585325  1.50000000
C   501.26000000  24.86536539  1.50000000
C   502.68000000  2.72975607  1.50000000
C   502.68000000  5.18926822  1.50000000
C   502.68000000  7.64878037  1.50000000
C   502.68000000  10.10829251  1.50000000
C   502.68000000  12.56780466  1.50000000
C   502.68000000  15.02731681  1.50000000
C   502.68000000  17.48682895  1.50000000
C   502.68000000  19.94634110  1.50000000
C   502.68000000  22.40585325  1.50000000
C   502.68000000  24.86536539  1.50000000
C   503.39000000  1.50000000  1.50000000
C   503.39000000  3.95951215  1.50000000
C   503.39000000  6.41902429  1.50000000
C   503.39000000  8.87853644  1.50000000
C   503.39000000  11.33804859  1.50000000
C   503.39000000  13.79756073  1.50000000
C   503.39000000  16.25707288  1.50000000
C   503.39000000  18.71658503  1.50000000
C   503.39000000  21.17609717  1.50000000
C   503.39000000  23.63560932  1.50000000
C   503.39000000  26.09512147  1.50000000
C   504.81000000  1.50000000  1.50000000
C   504.81000000  3.95951215  1.50000000
C   504.81000000  6.41902429  1.50000000
C   504.81000000  8.87853644  1.50000000
C   504.81000000  11.33804859  1.50000000
C   504.81000000  13.79756073  1.50000000
C   504.81000000  16.25707288  1.50000000
C   504.81000000  18.71658503  1.50000000
C   504.81000000  21.17609717  1.50000000
C   504.81000000  23.63560932  1.50000000
C   504.81000000  26.09512147  1.50000000
C   505.52000000  2.72975607  1.50000000
C   505.52000000  5.18926822  1.50000000
C   505.52000000  7.64878037  1.50000000
C   505.52000000  10.10829251  1.50000000
C   505.52000000  12.56780466  1.50000000
C   505.52000000  15.02731681  1.50000000
C   505.52000000  17.48682895  1.50000000
C   505.52000000  19.94634110  1.50000000
C   505.52000000  22.40585325  1.50000000
C   505.52000000  24.86536539  1.50000000
C   506.94000000  2.72975607  1.50000000
C   506.94000000  5.18926822  1.50000000
C   506.94000000  7.64878037  1.50000000
C   506.94000000  10.10829251  1.50000000
C   506.94000000  12.56780466  1.50000000
C   506.94000000  15.02731681  1.50000000
C   506.94000000  17.48682895  1.50000000
C   506.94000000  19.94634110  1.50000000
C   506.94000000  22.40585325  1.50000000
C   506.94000000  24.86536539  1.50000000
C   507.65000000  1.50000000  1.50000000
C   507.65000000  3.95951215  1.50000000
C   507.65000000  6.41902429  1.50000000
C   507.65000000  8.87853644  1.50000000
C   507.65000000  11.33804859  1.50000000
C   507.65000000  13.79756073  1.50000000
C   507.65000000  16.25707288  1.50000000
C   507.65000000  18.71658503  1.50000000
C   507.65000000  21.17609717  1.50000000
C   507.65000000  23.63560932  1.50000000
C   507.65000000  26.09512147  1.50000000
C   509.07000000  1.50000000  1.50000000
C   509.07000000  3.95951215  1.50000000
C   509.07000000  6.41902429  1.50000000
C   509.07000000  8.87853644  1.50000000
C   509.07000000  11.33804859  1.50000000
C   509.07000000  13.79756073  1.50000000
C   509.07000000  16.25707288  1.50000000
C   509.07000000  18.71658503  1.50000000
C   509.07000000  21.17609717  1.50000000
C   509.07000000  23.63560932  1.50000000
C   509.07000000  26.09512147  1.50000000
C   509.78000000  2.72975607  1.50000000
C   509.78000000  5.18926822  1.50000000
C   509.78000000  7.64878037  1.50000000
C   509.78000000  10.10829251  1.50000000
C   509.78000000  12.56780466  1.50000000
C   509.78000000  15.02731681  1.50000000
C   509.78000000  17.48682895  1.50000000
C   509.78000000  19.94634110  1.50000000
C   509.78000000  22.40585325  1.50000000
C   509.78000000  24.86536539  1.50000000
C   511.20000000  2.72975607  1.50000000
C   511.20000000  5.18926822  1.50000000
C   511.20000000  7.64878037  1.50000000
C   511.20000000  10.10829251  1.50000000
C   511.20000000  12.56780466  1.50000000
C   511.20000000  15.02731681  1.50000000
C   511.20000000  17.48682895  1.50000000
C   511.20000000  19.94634110  1.50000000
C   511.20000000  22.40585325  1.50000000
C   511.20000000  24.86536539  1.50000000
C   511.91000000  1.50000000  1.50000000
C   511.91000000  3.95951215  1.50000000
C   511.91000000  6.41902429  1.50000000
C   511.91000000  8.87853644  1.50000000
C   511.91000000  11.33804859  1.50000000
C   511.91000000  13.79756073  1.50000000
C   511.91000000  16.25707288  1.50000000
C   511.91000000  18.71658503  1.50000000
C   511.91000000  21.17609717  1.50000000
C   511.91000000  23.63560932  1.50000000
C   511.91000000  26.09512147  1.50000000
C   513.33000000  1.50000000  1.50000000
C   513.33000000  3.95951215  1.50000000
C   513.33000000  6.41902429  1.50000000
C   513.33000000  8.87853644  1.50000000
C   513.33000000  11.33804859  1.50000000
C   513.33000000  13.79756073  1.50000000
C   513.33000000  16.25707288  1.50000000
C   513.33000000  18.71658503  1.50000000
C   513.33000000  21.17609717  1.50000000
C   513.33000000  23.63560932  1.50000000
C   513.33000000  26.09512147  1.50000000
C   514.04000000  2.72975607  1.50000000
C   514.04000000  5.18926822  1.50000000
C   514.04000000  7.64878037  1.50000000
C   514.04000000  10.10829251  1.50000000
C   514.04000000  12.56780466  1.50000000
C   514.04000000  15.02731681  1.50000000
C   514.04000000  17.48682895  1.50000000
C   514.04000000  19.94634110  1.50000000
C   514.04000000  22.40585325  1.50000000
C   514.04000000  24.86536539  1.50000000
C   515.46000000  2.72975607  1.50000000
C   515.46000000  5.18926822  1.50000000
C   515.46000000  7.64878037  1.50000000
C   515.46000000  10.10829251  1.50000000
C   515.46000000  12.56780466  1.50000000
C   515.46000000  15.02731681  1.50000000
C   515.46000000  17.48682895  1.50000000
C   515.46000000  19.94634110  1.50000000
C   515.46000000  22.40585325  1.50000000
C   515.46000000  24.86536539  1.50000000
C   516.17000000  1.50000000  1.50000000
C   516.17000000  3.95951215  1.50000000
C   516.17000000  6.41902429  1.50000000
C   516.17000000  8.87853644  1.50000000
C   516.17000000  11.33804859  1.50000000
C   516.17000000  13.79756073  1.50000000
C   516.17000000  16.25707288  1.50000000
C   516.17000000  18.71658503  1.50000000
C   516.17000000  21.17609717  1.50000000
C   516.17000000  23.63560932  1.50000000
C   516.17000000  26.09512147  1.50000000
C   517.59000000  1.50000000  1.50000000
C   517.59000000  3.95951215  1.50000000
C   517.59000000  6.41902429  1.50000000
C   517.59000000  8.87853644  1.50000000
C   517.59000000  11.33804859  1.50000000
C   517.59000000  13.79756073  1.50000000
C   517.59000000  16.25707288  1.50000000
C   517.59000000  18.71658503  1.50000000
C   517.59000000  21.17609717  1.50000000
C   517.59000000  23.63560932  1.50000000
C   517.59000000  26.09512147  1.50000000
C   518.30000000  2.72975607  1.50000000
C   518.30000000  5.18926822  1.50000000
C   518.30000000  7.64878037  1.50000000
C   518.30000000  10.10829251  1.50000000
C   518.30000000  12.56780466  1.50000000
C   518.30000000  15.02731681  1.50000000
C   518.30000000  17.48682895  1.50000000
C   518.30000000  19.94634110  1.50000000
C   518.30000000  22.40585325  1.50000000
C   518.30000000  24.86536539  1.50000000
C   519.72000000  2.72975607  1.50000000
C   519.72000000  5.18926822  1.50000000
C   519.72000000  7.64878037  1.50000000
C   519.72000000  10.10829251  1.50000000
C   519.72000000  12.56780466  1.50000000
C   519.72000000  15.02731681  1.50000000
C   519.72000000  17.48682895  1.50000000
C   519.72000000  19.94634110  1.50000000
C   519.72000000  22.40585325  1.50000000
C   519.72000000  24.86536539  1.50000000
C   520.43000000  1.50000000  1.50000000
C   520.43000000  3.95951215  1.50000000
C   520.43000000  6.41902429  1.50000000
C   520.43000000  8.87853644  1.50000000
C   520.43000000  11.33804859  1.50000000
C   520.43000000  13.79756073  1.50000000
C   520.43000000  16.25707288  1.50000000
C   520.43000000  18.71658503  1.50000000
C   520.43000000  21.17609717  1.50000000
C   520.43000000  23.63560932  1.50000000
C   520.43000000  26.09512147  1.50000000
C   521.85000000  1.50000000  1.50000000
C   521.85000000  3.95951215  1.50000000
C   521.85000000  6.41902429  1.50000000
C   521.85000000  8.87853644  1.50000000
C   521.85000000  11.33804859  1.50000000
C   521.85000000  13.79756073  1.50000000
C   521.85000000  16.25707288  1.50000000
C   521.85000000  18.71658503  1.50000000
C   521.85000000  21.17609717  1.50000000
C   521.85000000  23.63560932  1.50000000
C   521.85000000  26.09512147  1.50000000
C   522.56000000  2.72975607  1.50000000
C   522.56000000  5.18926822  1.50000000
C   522.56000000  7.64878037  1.50000000
C   522.56000000  10.10829251  1.50000000
C   522.56000000  12.56780466  1.50000000
C   522.56000000  15.02731681  1.50000000
C   522.56000000  17.48682895  1.50000000
C   522.56000000  19.94634110  1.50000000
C   522.56000000  22.40585325  1.50000000
C   522.56000000  24.86536539  1.50000000
C   523.98000000  2.72975607  1.50000000
C   523.98000000  5.18926822  1.50000000
C   523.98000000  7.64878037  1.50000000
C   523.98000000  10.10829251  1.50000000
C   523.98000000  12.56780466  1.50000000
C   523.98000000  15.02731681  1.50000000
C   523.98000000  17.48682895  1.50000000
C   523.98000000  19.94634110  1.50000000
C   523.98000000  22.40585325  1.50000000
C   523.98000000  24.86536539  1.50000000
C   524.69000000  1.50000000  1.50000000
C   524.69000000  3.95951215  1.50000000
C   524.69000000  6.41902429  1.50000000
C   524.69000000  8.87853644  1.50000000
C   524.69000000  11.33804859  1.50000000
C   524.69000000  13.79756073  1.50000000
C   524.69000000  16.25707288  1.50000000
C   524.69000000  18.71658503  1.50000000
C   524.69000000  21.17609717  1.50000000
C   524.69000000  23.63560932  1.50000000
C   524.69000000  26.09512147  1.50000000
C   526.11000000  1.50000000  1.50000000
C   526.11000000  3.95951215  1.50000000
C   526.11000000  6.41902429  1.50000000
C   526.11000000  8.87853644  1.50000000
C   526.11000000  11.33804859  1.50000000
C   526.11000000  13.79756073  1.50000000
C   526.11000000  16.25707288  1.50000000
C   526.11000000  18.71658503  1.50000000
C   526.11000000  21.17609717  1.50000000
C   526.11000000  23.63560932  1.50000000
C   526.11000000  26.09512147  1.50000000
C   526.82000000  2.72975607  1.50000000
C   526.82000000  5.18926822  1.50000000
C   526.82000000  7.64878037  1.50000000
C   526.82000000  10.10829251  1.50000000
C   526.82000000  12.56780466  1.50000000
C   526.82000000  15.02731681  1.50000000
C   526.82000000  17.48682895  1.50000000
C   526.82000000  19.94634110  1.50000000
C   526.82000000  22.40585325  1.50000000
C   526.82000000  24.86536539  1.50000000
C   528.24000000  2.72975607  1.50000000
C   528.24000000  5.18926822  1.50000000
C   528.24000000  7.64878037  1.50000000
C   528.24000000  10.10829251  1.50000000
C   528.24000000  12.56780466  1.50000000
C   528.24000000  15.02731681  1.50000000
C   528.24000000  17.48682895  1.50000000
C   528.24000000  19.94634110  1.50000000
C   528.24000000  22.40585325  1.50000000
C   528.24000000  24.86536539  1.50000000
C   528.95000000  1.50000000  1.50000000
C   528.95000000  3.95951215  1.50000000
C   528.95000000  6.41902429  1.50000000
C   528.95000000  8.87853644  1.50000000
C   528.95000000  11.33804859  1.50000000
C   528.95000000  13.79756073  1.50000000
C   528.95000000  16.25707288  1.50000000
C   528.95000000  18.71658503  1.50000000
C   528.95000000  21.17609717  1.50000000
C   528.95000000  23.63560932  1.50000000
C   528.95000000  26.09512147  1.50000000
C   530.37000000  1.50000000  1.50000000
C   530.37000000  3.95951215  1.50000000
C   530.37000000  6.41902429  1.50000000
C   530.37000000  8.87853644  1.50000000
C   530.37000000  11.33804859  1.50000000
C   530.37000000  13.79756073  1.50000000
C   530.37000000  16.25707288  1.50000000
C   530.37000000  18.71658503  1.50000000
C   530.37000000  21.17609717  1.50000000
C   530.37000000  23.63560932  1.50000000
C   530.37000000  26.09512147  1.50000000
C   531.08000000  2.72975607  1.50000000
C   531.08000000  5.18926822  1.50000000
C   531.08000000  7.64878037  1.50000000
C   531.08000000  10.10829251  1.50000000
C   531.08000000  12.56780466  1.50000000
C   531.08000000  15.02731681  1.50000000
C   531.08000000  17.48682895  1.50000000
C   531.08000000  19.94634110  1.50000000
C   531.08000000  22.40585325  1.50000000
C   531.08000000  24.86536539  1.50000000
C   532.50000000  2.72975607  1.50000000
C   532.50000000  5.18926822  1.50000000
C   532.50000000  7.64878037  1.50000000
C   532.50000000  10.10829251  1.50000000
C   532.50000000  12.56780466  1.50000000
C   532.50000000  15.02731681  1.50000000
C   532.50000000  17.48682895  1.50000000
C   532.50000000  19.94634110  1.50000000
C   532.50000000  22.40585325  1.50000000
C   532.50000000  24.86536539  1.50000000
C   533.21000000  1.50000000  1.50000000
C   533.21000000  3.95951215  1.50000000
C   533.21000000  6.41902429  1.50000000
C   533.21000000  8.87853644  1.50000000
C   533.21000000  11.33804859  1.50000000
C   533.21000000  13.79756073  1.50000000
C   533.21000000  16.25707288  1.50000000
C   533.21000000  18.71658503  1.50000000
C   533.21000000  21.17609717  1.50000000
C   533.21000000  23.63560932  1.50000000
C   533.21000000  26.09512147  1.50000000
C   534.63000000  1.50000000  1.50000000
C   534.63000000  3.95951215  1.50000000
C   534.63000000  6.41902429  1.50000000
C   534.63000000  8.87853644  1.50000000
C   534.63000000  11.33804859  1.50000000
C   534.63000000  13.79756073  1.50000000
C   534.63000000  16.25707288  1.50000000
C   534.63000000  18.71658503  1.50000000
C   534.63000000  21.17609717  1.50000000
C   534.63000000  23.63560932  1.50000000
C   534.63000000  26.09512147  1.50000000
C   535.34000000  2.72975607  1.50000000
C   535.34000000  5.18926822  1.50000000
C   535.34000000  7.64878037  1.50000000
C   535.34000000  10.10829251  1.50000000
C   535.34000000  12.56780466  1.50000000
C   535.34000000  15.02731681  1.50000000
C   535.34000000  17.48682895  1.50000000
C   535.34000000  19.94634110  1.50000000
C   535.34000000  22.40585325  1.50000000
C   535.34000000  24.86536539  1.50000000
C   536.76000000  2.72975607  1.50000000
C   536.76000000  5.18926822  1.50000000
C   536.76000000  7.64878037  1.50000000
C   536.76000000  10.10829251  1.50000000
C   536.76000000  12.56780466  1.50000000
C   536.76000000  15.02731681  1.50000000
C   536.76000000  17.48682895  1.50000000
C   536.76000000  19.94634110  1.50000000
C   536.76000000  22.40585325  1.50000000
C   536.76000000  24.86536539  1.50000000
C   537.47000000  1.50000000  1.50000000
C   537.47000000  3.95951215  1.50000000
C   537.47000000  6.41902429  1.50000000
C   537.47000000  8.87853644  1.50000000
C   537.47000000  11.33804859  1.50000000
C   537.47000000  13.79756073  1.50000000
C   537.47000000  16.25707288  1.50000000
C   537.47000000  18.71658503  1.50000000
C   537.47000000  21.17609717  1.50000000
C   537.47000000  23.63560932  1.50000000
C   537.47000000  26.09512147  1.50000000
C   538.89000000  1.50000000  1.50000000
C   538.89000000  3.95951215  1.50000000
C   538.89000000  6.41902429  1.50000000
C   538.89000000  8.87853644  1.50000000
C   538.89000000  11.33804859  1.50000000
C   538.89000000  13.79756073  1.50000000
C   538.89000000  16.25707288  1.50000000
C   538.89000000  18.71658503  1.50000000
C   538.89000000  21.17609717  1.50000000
C   538.89000000  23.63560932  1.50000000
C   538.89000000  26.09512147  1.50000000
C   539.60000000  2.72975607  1.50000000
C   539.60000000  5.18926822  1.50000000
C   539.60000000  7.64878037  1.50000000
C   539.60000000  10.10829251  1.50000000
C   539.60000000  12.56780466  1.50000000
C   539.60000000  15.02731681  1.50000000
C   539.60000000  17.48682895  1.50000000
C   539.60000000  19.94634110  1.50000000
C   539.60000000  22.40585325  1.50000000
C   539.60000000  24.86536539  1.50000000
C   541.02000000  2.72975607  1.50000000
C   541.02000000  5.18926822  1.50000000
C   541.02000000  7.64878037  1.50000000
C   541.02000000  10.10829251  1.50000000
C   541.02000000  12.56780466  1.50000000
C   541.02000000  15.02731681  1.50000000
C   541.02000000  17.48682895  1.50000000
C   541.02000000  19.94634110  1.50000000
C   541.02000000  22.40585325  1.50000000
C   541.02000000  24.86536539  1.50000000
C   541.73000000  1.50000000  1.50000000
C   541.73000000  3.95951215  1.50000000
C   541.73000000  6.41902429  1.50000000
C   541.73000000  8.87853644  1.50000000
C   541.73000000  11.33804859  1.50000000
C   541.73000000  13.79756073  1.50000000
C   541.73000000  16.25707288  1.50000000
C   541.73000000  18.71658503  1.50000000
C   541.73000000  21.17609717  1.50000000
C   541.73000000  23.63560932  1.50000000
C   541.73000000  26.09512147  1.50000000
C   543.15000000  1.50000000  1.50000000
C   543.15000000  3.95951215  1.50000000
C   543.15000000  6.41902429  1.50000000
C   543.15000000  8.87853644  1.50000000
C   543.15000000  11.33804859  1.50000000
C   543.15000000  13.79756073  1.50000000
C   543.15000000  16.25707288  1.50000000
C   543.15000000  18.71658503  1.50000000
C   543.15000000  21.17609717  1.50000000
C   543.15000000  23.63560932  1.50000000
C   543.15000000  26.09512147  1.50000000
C   543.86000000  2.72975607  1.50000000
C   543.86000000  5.18926822  1.50000000
C   543.86000000  7.64878037  1.50000000
C   543.86000000  10.10829251  1.50000000
C   543.86000000  12.56780466  1.50000000
C   543.86000000  15.02731681  1.50000000
C   543.86000000  17.48682895  1.50000000
C   543.86000000  19.94634110  1.50000000
C   543.86000000  22.40585325  1.50000000
C   543.86000000  24.86536539  1.50000000
C   545.28000000  2.72975607  1.50000000
C   545.28000000  5.18926822  1.50000000
C   545.28000000  7.64878037  1.50000000
C   545.28000000  10.10829251  1.50000000
C   545.28000000  12.56780466  1.50000000
C   545.28000000  15.02731681  1.50000000
C   545.28000000  17.48682895  1.50000000
C   545.28000000  19.94634110  1.50000000
C   545.28000000  22.40585325  1.50000000
C   545.28000000  24.86536539  1.50000000
C   545.99000000  1.50000000  1.50000000
C   545.99000000  3.95951215  1.50000000
C   545.99000000  6.41902429  1.50000000
C   545.99000000  8.87853644  1.50000000
C   545.99000000  11.33804859  1.50000000
C   545.99000000  13.79756073  1.50000000
C   545.99000000  16.25707288  1.50000000
C   545.99000000  18.71658503  1.50000000
C   545.99000000  21.17609717  1.50000000
C   545.99000000  23.63560932  1.50000000
C   545.99000000  26.09512147  1.50000000
C   547.41000000  1.50000000  1.50000000
C   547.41000000  3.95951215  1.50000000
C   547.41000000  6.41902429  1.50000000
C   547.41000000  8.87853644  1.50000000
C   547.41000000  11.33804859  1.50000000
C   547.41000000  13.79756073  1.50000000
C   547.41000000  16.25707288  1.50000000
C   547.41000000  18.71658503  1.50000000
C   547.41000000  21.17609717  1.50000000
C   547.41000000  23.63560932  1.50000000
C   547.41000000  26.09512147  1.50000000
C   548.12000000  2.72975607  1.50000000
C   548.12000000  5.18926822  1.50000000
C   548.12000000  7.64878037  1.50000000
C   548.12000000  10.10829251  1.50000000
C   548.12000000  12.56780466  1.50000000
C   548.12000000  15.02731681  1.50000000
C   548.12000000  17.48682895  1.50000000
C   548.12000000  19.94634110  1.50000000
C   548.12000000  22.40585325  1.50000000
C   548.12000000  24.86536539  1.50000000
C   549.54000000  2.72975607  1.50000000
C   549.54000000  5.18926822  1.50000000
C   549.54000000  7.64878037  1.50000000
C   549.54000000  10.10829251  1.50000000
C   549.54000000  12.56780466  1.50000000
C   549.54000000  15.02731681  1.50000000
C   549.54000000  17.48682895  1.50000000
C   549.54000000  19.94634110  1.50000000
C   549.54000000  22.40585325  1.50000000
C   549.54000000  24.86536539  1.50000000
C   550.25000000  1.50000000  1.50000000
C   550.25000000  3.95951215  1.50000000
C   550.25000000  6.41902429  1.50000000
C   550.25000000  8.87853644  1.50000000
C   550.25000000  11.33804859  1.50000000
C   550.25000000  13.79756073  1.50000000
C   550.25000000  16.25707288  1.50000000
C   550.25000000  18.71658503  1.50000000
C   550.25000000  21.17609717  1.50000000
C   550.25000000  23.63560932  1.50000000
C   550.25000000  26.09512147  1.50000000
C   551.67000000  1.50000000  1.50000000
C   551.67000000  3.95951215  1.50000000
C   551.67000000  6.41902429  1.50000000
C   551.67000000  8.87853644  1.50000000
C   551.67000000  11.33804859  1.50000000
C   551.67000000  13.79756073  1.50000000
C   551.67000000  16.25707288  1.50000000
C   551.67000000  18.71658503  1.50000000
C   551.67000000  21.17609717  1.50000000
C   551.67000000  23.63560932  1.50000000
C   551.67000000  26.09512147  1.50000000
C   552.38000000  2.72975607  1.50000000
C   552.38000000  5.18926822  1.50000000
C   552.38000000  7.64878037  1.50000000
C   552.38000000  10.10829251  1.50000000
C   552.38000000  12.56780466  1.50000000
C   552.38000000  15.02731681  1.50000000
C   552.38000000  17.48682895  1.50000000
C   552.38000000  19.94634110  1.50000000
C   552.38000000  22.40585325  1.50000000
C   552.38000000  24.86536539  1.50000000
C   553.80000000  2.72975607  1.50000000
C   553.80000000  5.18926822  1.50000000
C   553.80000000  7.64878037  1.50000000
C   553.80000000  10.10829251  1.50000000
C   553.80000000  12.56780466  1.50000000
C   553.80000000  15.02731681  1.50000000
C   553.80000000  17.48682895  1.50000000
C   553.80000000  19.94634110  1.50000000
C   553.80000000  22.40585325  1.50000000
C   553.80000000  24.86536539  1.50000000
C   554.51000000  1.50000000  1.50000000
C   554.51000000  3.95951215  1.50000000
C   554.51000000  6.41902429  1.50000000
C   554.51000000  8.87853644  1.50000000
C   554.51000000  11.33804859  1.50000000
C   554.51000000  13.79756073  1.50000000
C   554.51000000  16.25707288  1.50000000
C   554.51000000  18.71658503  1.50000000
C   554.51000000  21.17609717  1.50000000
C   554.51000000  23.63560932  1.50000000
C   554.51000000  26.09512147  1.50000000
C   555.93000000  1.50000000  1.50000000
C   555.93000000  3.95951215  1.50000000
C   555.93000000  6.41902429  1.50000000
C   555.93000000  8.87853644  1.50000000
C   555.93000000  11.33804859  1.50000000
C   555.93000000  13.79756073  1.50000000
C   555.93000000  16.25707288  1.50000000
C   555.93000000  18.71658503  1.50000000
C   555.93000000  21.17609717  1.50000000
C   555.93000000  23.63560932  1.50000000
C   555.93000000  26.09512147  1.50000000
C   556.64000000  2.72975607  1.50000000
C   556.64000000  5.18926822  1.50000000
C   556.64000000  7.64878037  1.50000000
C   556.64000000  10.10829251  1.50000000
C   556.64000000  12.56780466  1.50000000
C   556.64000000  15.02731681  1.50000000
C   556.64000000  17.48682895  1.50000000
C   556.64000000  19.94634110  1.50000000
C   556.64000000  22.40585325  1.50000000
C   556.64000000  24.86536539  1.50000000
C   558.06000000  2.72975607  1.50000000
C   558.06000000  5.18926822  1.50000000
C   558.06000000  7.64878037  1.50000000
C   558.06000000  10.10829251  1.50000000
C   558.06000000  12.56780466  1.50000000
C   558.06000000  15.02731681  1.50000000
C   558.06000000  17.48682895  1.50000000
C   558.06000000  19.94634110  1.50000000
C   558.06000000  22.40585325  1.50000000
C   558.06000000  24.86536539  1.50000000
C   558.77000000  1.50000000  1.50000000
C   558.77000000  3.95951215  1.50000000
C   558.77000000  6.41902429  1.50000000
C   558.77000000  8.87853644  1.50000000
C   558.77000000  11.33804859  1.50000000
C   558.77000000  13.79756073  1.50000000
C   558.77000000  16.25707288  1.50000000
C   558.77000000  18.71658503  1.50000000
C   558.77000000  21.17609717  1.50000000
C   558.77000000  23.63560932  1.50000000
C   558.77000000  26.09512147  1.50000000
C   560.19000000  1.50000000  1.50000000
C   560.19000000  3.95951215  1.50000000
C   560.19000000  6.41902429  1.50000000
C   560.19000000  8.87853644  1.50000000
C   560.19000000  11.33804859  1.50000000
C   560.19000000  13.79756073  1.50000000
C   560.19000000  16.25707288  1.50000000
C   560.19000000  18.71658503  1.50000000
C   560.19000000  21.17609717  1.50000000
C   560.19000000  23.63560932  1.50000000
C   560.19000000  26.09512147  1.50000000
C   560.90000000  2.72975607  1.50000000
C   560.90000000  5.18926822  1.50000000
C   560.90000000  7.64878037  1.50000000
C   560.90000000  10.10829251  1.50000000
C   560.90000000  12.56780466  1.50000000
C   560.90000000  15.02731681  1.50000000
C   560.90000000  17.48682895  1.50000000
C   560.90000000  19.94634110  1.50000000
C   560.90000000  22.40585325  1.50000000
C   560.90000000  24.86536539  1.50000000
C   562.32000000  2.72975607  1.50000000
C   562.32000000  5.18926822  1.50000000
C   562.32000000  7.64878037  1.50000000
C   562.32000000  10.10829251  1.50000000
C   562.32000000  12.56780466  1.50000000
C   562.32000000  15.02731681  1.50000000
C   562.32000000  17.48682895  1.50000000
C   562.32000000  19.94634110  1.50000000
C   562.32000000  22.40585325  1.50000000
C   562.32000000  24.86536539  1.50000000
C   563.03000000  1.50000000  1.50000000
C   563.03000000  3.95951215  1.50000000
C   563.03000000  6.41902429  1.50000000
C   563.03000000  8.87853644  1.50000000
C   563.03000000  11.33804859  1.50000000
C   563.03000000  13.79756073  1.50000000
C   563.03000000  16.25707288  1.50000000
C   563.03000000  18.71658503  1.50000000
C   563.03000000  21.17609717  1.50000000
C   563.03000000  23.63560932  1.50000000
C   563.03000000  26.09512147  1.50000000
C   564.45000000  1.50000000  1.50000000
C   564.45000000  3.95951215  1.50000000
C   564.45000000  6.41902429  1.50000000
C   564.45000000  8.87853644  1.50000000
C   564.45000000  11.33804859  1.50000000
C   564.45000000  13.79756073  1.50000000
C   564.45000000  16.25707288  1.50000000
C   564.45000000  18.71658503  1.50000000
C   564.45000000  21.17609717  1.50000000
C   564.45000000  23.63560932  1.50000000
C   564.45000000  26.09512147  1.50000000
C   565.16000000  2.72975607  1.50000000
C   565.16000000  5.18926822  1.50000000
C   565.16000000  7.64878037  1.50000000
C   565.16000000  10.10829251  1.50000000
C   565.16000000  12.56780466  1.50000000
C   565.16000000  15.02731681  1.50000000
C   565.16000000  17.48682895  1.50000000
C   565.16000000  19.94634110  1.50000000
C   565.16000000  22.40585325  1.50000000
C   565.16000000  24.86536539  1.50000000
C   566.58000000  2.72975607  1.50000000
C   566.58000000  5.18926822  1.50000000
C   566.58000000  7.64878037  1.50000000
C   566.58000000  10.10829251  1.50000000
C   566.58000000  12.56780466  1.50000000
C   566.58000000  15.02731681  1.50000000
C   566.58000000  17.48682895  1.50000000
C   566.58000000  19.94634110  1.50000000
C   566.58000000  22.40585325  1.50000000
C   566.58000000  24.86536539  1.50000000
C   567.29000000  1.50000000  1.50000000
C   567.29000000  3.95951215  1.50000000
C   567.29000000  6.41902429  1.50000000
C   567.29000000  8.87853644  1.50000000
C   567.29000000  11.33804859  1.50000000
C   567.29000000  13.79756073  1.50000000
C   567.29000000  16.25707288  1.50000000
C   567.29000000  18.71658503  1.50000000
C   567.29000000  21.17609717  1.50000000
C   567.29000000  23.63560932  1.50000000
C   567.29000000  26.09512147  1.50000000
C   568.71000000  1.50000000  1.50000000
C   568.71000000  3.95951215  1.50000000
C   568.71000000  6.41902429  1.50000000
C   568.71000000  8.87853644  1.50000000
C   568.71000000  11.33804859  1.50000000
C   568.71000000  13.79756073  1.50000000
C   568.71000000  16.25707288  1.50000000
C   568.71000000  18.71658503  1.50000000
C   568.71000000  21.17609717  1.50000000
C   568.71000000  23.63560932  1.50000000
C   568.71000000  26.09512147  1.50000000
C   569.42000000  2.72975607  1.50000000
C   569.42000000  5.18926822  1.50000000
C   569.42000000  7.64878037  1.50000000
C   569.42000000  10.10829251  1.50000000
C   569.42000000  12.56780466  1.50000000
C   569.42000000  15.02731681  1.50000000
C   569.42000000  17.48682895  1.50000000
C   569.42000000  19.94634110  1.50000000
C   569.42000000  22.40585325  1.50000000
C   569.42000000  24.86536539  1.50000000
C   570.84000000  2.72975607  1.50000000
C   570.84000000  5.18926822  1.50000000
C   570.84000000  7.64878037  1.50000000
C   570.84000000  10.10829251  1.50000000
C   570.84000000  12.56780466  1.50000000
C   570.84000000  15.02731681  1.50000000
C   570.84000000  17.48682895  1.50000000
C   570.84000000  19.94634110  1.50000000
C   570.84000000  22.40585325  1.50000000
C   570.84000000  24.86536539  1.50000000
C   571.55000000  1.50000000  1.50000000
C   571.55000000  3.95951215  1.50000000
C   571.55000000  6.41902429  1.50000000
C   571.55000000  8.87853644  1.50000000
C   571.55000000  11.33804859  1.50000000
C   571.55000000  13.79756073  1.50000000
C   571.55000000  16.25707288  1.50000000
C   571.55000000  18.71658503  1.50000000
C   571.55000000  21.17609717  1.50000000
C   571.55000000  23.63560932  1.50000000
C   571.55000000  26.09512147  1.50000000
C   572.97000000  1.50000000  1.50000000
C   572.97000000  3.95951215  1.50000000
C   572.97000000  6.41902429  1.50000000
C   572.97000000  8.87853644  1.50000000
C   572.97000000  11.33804859  1.50000000
C   572.97000000  13.79756073  1.50000000
C   572.97000000  16.25707288  1.50000000
C   572.97000000  18.71658503  1.50000000
C   572.97000000  21.17609717  1.50000000
C   572.97000000  23.63560932  1.50000000
C   572.97000000  26.09512147  1.50000000
C   573.68000000  2.72975607  1.50000000
C   573.68000000  5.18926822  1.50000000
C   573.68000000  7.64878037  1.50000000
C   573.68000000  10.10829251  1.50000000
C   573.68000000  12.56780466  1.50000000
C   573.68000000  15.02731681  1.50000000
C   573.68000000  17.48682895  1.50000000
C   573.68000000  19.94634110  1.50000000
C   573.68000000  22.40585325  1.50000000
C   573.68000000  24.86536539  1.50000000
C   575.10000000  2.72975607  1.50000000
C   575.10000000  5.18926822  1.50000000
C   575.10000000  7.64878037  1.50000000
C   575.10000000  10.10829251  1.50000000
C   575.10000000  12.56780466  1.50000000
C   575.10000000  15.02731681  1.50000000
C   575.10000000  17.48682895  1.50000000
C   575.10000000  19.94634110  1.50000000
C   575.10000000  22.40585325  1.50000000
C   575.10000000  24.86536539  1.50000000
C   575.81000000  1.50000000  1.50000000
C   575.81000000  3.95951215  1.50000000
C   575.81000000  6.41902429  1.50000000
C   575.81000000  8.87853644  1.50000000
C   575.81000000  11.33804859  1.50000000
C   575.81000000  13.79756073  1.50000000
C   575.81000000  16.25707288  1.50000000
C   575.81000000  18.71658503  1.50000000
C   575.81000000  21.17609717  1.50000000
C   575.81000000  23.63560932  1.50000000
C   575.81000000  26.09512147  1.50000000
C   577.23000000  1.50000000  1.50000000
C   577.23000000  3.95951215  1.50000000
C   577.23000000  6.41902429  1.50000000
C   577.23000000  8.87853644  1.50000000
C   577.23000000  11.33804859  1.50000000
C   577.23000000  13.79756073  1.50000000
C   577.23000000  16.25707288  1.50000000
C   577.23000000  18.71658503  1.50000000
C   577.23000000  21.17609717  1.50000000
C   577.23000000  23.63560932  1.50000000
C   577.23000000  26.09512147  1.50000000
C   577.94000000  2.72975607  1.50000000
C   577.94000000  5.18926822  1.50000000
C   577.94000000  7.64878037  1.50000000
C   577.94000000  10.10829251  1.50000000
C   577.94000000  12.56780466  1.50000000
C   577.94000000  15.02731681  1.50000000
C   577.94000000  17.48682895  1.50000000
C   577.94000000  19.94634110  1.50000000
C   577.94000000  22.40585325  1.50000000
C   577.94000000  24.86536539  1.50000000
C   579.36000000  2.72975607  1.50000000
C   579.36000000  5.18926822  1.50000000
C   579.36000000  7.64878037  1.50000000
C   579.36000000  10.10829251  1.50000000
C   579.36000000  12.56780466  1.50000000
C   579.36000000  15.02731681  1.50000000
C   579.36000000  17.48682895  1.50000000
C   579.36000000  19.94634110  1.50000000
C   579.36000000  22.40585325  1.50000000
C   579.36000000  24.86536539  1.50000000
C   580.07000000  1.50000000  1.50000000
C   580.07000000  3.95951215  1.50000000
C   580.07000000  6.41902429  1.50000000
C   580.07000000  8.87853644  1.50000000
C   580.07000000  11.33804859  1.50000000
C   580.07000000  13.79756073  1.50000000
C   580.07000000  16.25707288  1.50000000
C   580.07000000  18.71658503  1.50000000
C   580.07000000  21.17609717  1.50000000
C   580.07000000  23.63560932  1.50000000
C   580.07000000  26.09512147  1.50000000
C   581.49000000  1.50000000  1.50000000
C   581.49000000  3.95951215  1.50000000
C   581.49000000  6.41902429  1.50000000
C   581.49000000  8.87853644  1.50000000
C   581.49000000  11.33804859  1.50000000
C   581.49000000  13.79756073  1.50000000
C   581.49000000  16.25707288  1.50000000
C   581.49000000  18.71658503  1.50000000
C   581.49000000  21.17609717  1.50000000
C   581.49000000  23.63560932  1.50000000
C   581.49000000  26.09512147  1.50000000
C   582.20000000  2.72975607  1.50000000
C   582.20000000  5.18926822  1.50000000
C   582.20000000  7.64878037  1.50000000
C   582.20000000  10.10829251  1.50000000
C   582.20000000  12.56780466  1.50000000
C   582.20000000  15.02731681  1.50000000
C   582.20000000  17.48682895  1.50000000
C   582.20000000  19.94634110  1.50000000
C   582.20000000  22.40585325  1.50000000
C   582.20000000  24.86536539  1.50000000
C   583.62000000  2.72975607  1.50000000
C   583.62000000  5.18926822  1.50000000
C   583.62000000  7.64878037  1.50000000
C   583.62000000  10.10829251  1.50000000
C   583.62000000  12.56780466  1.50000000
C   583.62000000  15.02731681  1.50000000
C   583.62000000  17.48682895  1.50000000
C   583.62000000  19.94634110  1.50000000
C   583.62000000  22.40585325  1.50000000
C   583.62000000  24.86536539  1.50000000
C   584.33000000  1.50000000  1.50000000
C   584.33000000  3.95951215  1.50000000
C   584.33000000  6.41902429  1.50000000
C   584.33000000  8.87853644  1.50000000
C   584.33000000  11.33804859  1.50000000
C   584.33000000  13.79756073  1.50000000
C   584.33000000  16.25707288  1.50000000
C   584.33000000  18.71658503  1.50000000
C   584.33000000  21.17609717  1.50000000
C   584.33000000  23.63560932  1.50000000
C   584.33000000  26.09512147  1.50000000
C   585.75000000  1.50000000  1.50000000
C   585.75000000  3.95951215  1.50000000
C   585.75000000  6.41902429  1.50000000
C   585.75000000  8.87853644  1.50000000
C   585.75000000  11.33804859  1.50000000
C   585.75000000  13.79756073  1.50000000
C   585.75000000  16.25707288  1.50000000
C   585.75000000  18.71658503  1.50000000
C   585.75000000  21.17609717  1.50000000
C   585.75000000  23.63560932  1.50000000
C   585.75000000  26.09512147  1.50000000
C   586.46000000  2.72975607  1.50000000
C   586.46000000  5.18926822  1.50000000
C   586.46000000  7.64878037  1.50000000
C   586.46000000  10.10829251  1.50000000
C   586.46000000  12.56780466  1.50000000
C   586.46000000  15.02731681  1.50000000
C   586.46000000  17.48682895  1.50000000
C   586.46000000  19.94634110  1.50000000
C   586.46000000  22.40585325  1.50000000
C   586.46000000  24.86536539  1.50000000
C   587.88000000  2.72975607  1.50000000
C   587.88000000  5.18926822  1.50000000
C   587.88000000  7.64878037  1.50000000
C   587.88000000  10.10829251  1.50000000
C   587.88000000  12.56780466  1.50000000
C   587.88000000  15.02731681  1.50000000
C   587.88000000  17.48682895  1.50000000
C   587.88000000  19.94634110  1.50000000
C   587.88000000  22.40585325  1.50000000
C   587.88000000  24.86536539  1.50000000
C   588.59000000  1.50000000  1.50000000
C   588.59000000  3.95951215  1.50000000
C   588.59000000  6.41902429  1.50000000
C   588.59000000  8.87853644  1.50000000
C   588.59000000  11.33804859  1.50000000
C   588.59000000  13.79756073  1.50000000
C   588.59000000  16.25707288  1.50000000
C   588.59000000  18.71658503  1.50000000
C   588.59000000  21.17609717  1.50000000
C   588.59000000  23.63560932  1.50000000
C   588.59000000  26.09512147  1.50000000
C   590.01000000  1.50000000  1.50000000
C   590.01000000  3.95951215  1.50000000
C   590.01000000  6.41902429  1.50000000
C   590.01000000  8.87853644  1.50000000
C   590.01000000  11.33804859  1.50000000
C   590.01000000  13.79756073  1.50000000
C   590.01000000  16.25707288  1.50000000
C   590.01000000  18.71658503  1.50000000
C   590.01000000  21.17609717  1.50000000
C   590.01000000  23.63560932  1.50000000
C   590.01000000  26.09512147  1.50000000
C   590.72000000  2.72975607  1.50000000
C   590.72000000  5.18926822  1.50000000
C   590.72000000  7.64878037  1.50000000
C   590.72000000  10.10829251  1.50000000
C   590.72000000  12.56780466  1.50000000
C   590.72000000  15.02731681  1.50000000
C   590.72000000  17.48682895  1.50000000
C   590.72000000  19.94634110  1.50000000
C   590.72000000  22.40585325  1.50000000
C   590.72000000  24.86536539  1.50000000
C   592.14000000  2.72975607  1.50000000
C   592.14000000  5.18926822  1.50000000
C   592.14000000  7.64878037  1.50000000
C   592.14000000  10.10829251  1.50000000
C   592.14000000  12.56780466  1.50000000
C   592.14000000  15.02731681  1.50000000
C   592.14000000  17.48682895  1.50000000
C   592.14000000  19.94634110  1.50000000
C   592.14000000  22.40585325  1.50000000
C   592.14000000  24.86536539  1.50000000
C   592.85000000  1.50000000  1.50000000
C   592.85000000  3.95951215  1.50000000
C   592.85000000  6.41902429  1.50000000
C   592.85000000  8.87853644  1.50000000
C   592.85000000  11.33804859  1.50000000
C   592.85000000  13.79756073  1.50000000
C   592.85000000  16.25707288  1.50000000
C   592.85000000  18.71658503  1.50000000
C   592.85000000  21.17609717  1.50000000
C   592.85000000  23.63560932  1.50000000
C   592.85000000  26.09512147  1.50000000
C   594.27000000  1.50000000  1.50000000
C   594.27000000  3.95951215  1.50000000
C   594.27000000  6.41902429  1.50000000
C   594.27000000  8.87853644  1.50000000
C   594.27000000  11.33804859  1.50000000
C   594.27000000  13.79756073  1.50000000
C   594.27000000  16.25707288  1.50000000
C   594.27000000  18.71658503  1.50000000
C   594.27000000  21.17609717  1.50000000
C   594.27000000  23.63560932  1.50000000
C   594.27000000  26.09512147  1.50000000
C   594.98000000  2.72975607  1.50000000
C   594.98000000  5.18926822  1.50000000
C   594.98000000  7.64878037  1.50000000
C   594.98000000  10.10829251  1.50000000
C   594.98000000  12.56780466  1.50000000
C   594.98000000  15.02731681  1.50000000
C   594.98000000  17.48682895  1.50000000
C   594.98000000  19.94634110  1.50000000
C   594.98000000  22.40585325  1.50000000
C   594.98000000  24.86536539  1.50000000
C   596.40000000  2.72975607  1.50000000
C   596.40000000  5.18926822  1.50000000
C   596.40000000  7.64878037  1.50000000
C   596.40000000  10.10829251  1.50000000
C   596.40000000  12.56780466  1.50000000
C   596.40000000  15.02731681  1.50000000
C   596.40000000  17.48682895  1.50000000
C   596.40000000  19.94634110  1.50000000
C   596.40000000  22.40585325  1.50000000
C   596.40000000  24.86536539  1.50000000
C   597.11000000  1.50000000  1.50000000
C   597.11000000  3.95951215  1.50000000
C   597.11000000  6.41902429  1.50000000
C   597.11000000  8.87853644  1.50000000
C   597.11000000  11.33804859  1.50000000
C   597.11000000  13.79756073  1.50000000
C   597.11000000  16.25707288  1.50000000
C   597.11000000  18.71658503  1.50000000
C   597.11000000  21.17609717  1.50000000
C   597.11000000  23.63560932  1.50000000
C   597.11000000  26.09512147  1.50000000
C   598.53000000  1.50000000  1.50000000
C   598.53000000  3.95951215  1.50000000
C   598.53000000  6.41902429  1.50000000
C   598.53000000  8.87853644  1.50000000
C   598.53000000  11.33804859  1.50000000
C   598.53000000  13.79756073  1.50000000
C   598.53000000  16.25707288  1.50000000
C   598.53000000  18.71658503  1.50000000
C   598.53000000  21.17609717  1.50000000
C   598.53000000  23.63560932  1.50000000
C   598.53000000  26.09512147  1.50000000
C   599.24000000  2.72975607  1.50000000
C   599.24000000  5.18926822  1.50000000
C   599.24000000  7.64878037  1.50000000
C   599.24000000  10.10829251  1.50000000
C   599.24000000  12.56780466  1.50000000
C   599.24000000  15.02731681  1.50000000
C   599.24000000  17.48682895  1.50000000
C   599.24000000  19.94634110  1.50000000
C   599.24000000  22.40585325  1.50000000
C   599.24000000  24.86536539  1.50000000
C   600.66000000  2.72975607  1.50000000
C   600.66000000  5.18926822  1.50000000
C   600.66000000  7.64878037  1.50000000
C   600.66000000  10.10829251  1.50000000
C   600.66000000  12.56780466  1.50000000
C   600.66000000  15.02731681  1.50000000
C   600.66000000  17.48682895  1.50000000
C   600.66000000  19.94634110  1.50000000
C   600.66000000  22.40585325  1.50000000
C   600.66000000  24.86536539  1.50000000
C   601.37000000  1.50000000  1.50000000
C   601.37000000  3.95951215  1.50000000
C   601.37000000  6.41902429  1.50000000
C   601.37000000  8.87853644  1.50000000
C   601.37000000  11.33804859  1.50000000
C   601.37000000  13.79756073  1.50000000
C   601.37000000  16.25707288  1.50000000
C   601.37000000  18.71658503  1.50000000
C   601.37000000  21.17609717  1.50000000
C   601.37000000  23.63560932  1.50000000
C   601.37000000  26.09512147  1.50000000
C   602.79000000  1.50000000  1.50000000
C   602.79000000  3.95951215  1.50000000
C   602.79000000  6.41902429  1.50000000
C   602.79000000  8.87853644  1.50000000
C   602.79000000  11.33804859  1.50000000
C   602.79000000  13.79756073  1.50000000
C   602.79000000  16.25707288  1.50000000
C   602.79000000  18.71658503  1.50000000
C   602.79000000  21.17609717  1.50000000
C   602.79000000  23.63560932  1.50000000
C   602.79000000  26.09512147  1.50000000
C   603.50000000  2.72975607  1.50000000
C   603.50000000  5.18926822  1.50000000
C   603.50000000  7.64878037  1.50000000
C   603.50000000  10.10829251  1.50000000
C   603.50000000  12.56780466  1.50000000
C   603.50000000  15.02731681  1.50000000
C   603.50000000  17.48682895  1.50000000
C   603.50000000  19.94634110  1.50000000
C   603.50000000  22.40585325  1.50000000
C   603.50000000  24.86536539  1.50000000
C   604.92000000  2.72975607  1.50000000
C   604.92000000  5.18926822  1.50000000
C   604.92000000  7.64878037  1.50000000
C   604.92000000  10.10829251  1.50000000
C   604.92000000  12.56780466  1.50000000
C   604.92000000  15.02731681  1.50000000
C   604.92000000  17.48682895  1.50000000
C   604.92000000  19.94634110  1.50000000
C   604.92000000  22.40585325  1.50000000
C   604.92000000  24.86536539  1.50000000
C   605.63000000  1.50000000  1.50000000
C   605.63000000  3.95951215  1.50000000
C   605.63000000  6.41902429  1.50000000
C   605.63000000  8.87853644  1.50000000
C   605.63000000  11.33804859  1.50000000
C   605.63000000  13.79756073  1.50000000
C   605.63000000  16.25707288  1.50000000
C   605.63000000  18.71658503  1.50000000
C   605.63000000  21.17609717  1.50000000
C   605.63000000  23.63560932  1.50000000
C   605.63000000  26.09512147  1.50000000
C   607.05000000  1.50000000  1.50000000
C   607.05000000  3.95951215  1.50000000
C   607.05000000  6.41902429  1.50000000
C   607.05000000  8.87853644  1.50000000
C   607.05000000  11.33804859  1.50000000
C   607.05000000  13.79756073  1.50000000
C   607.05000000  16.25707288  1.50000000
C   607.05000000  18.71658503  1.50000000
C   607.05000000  21.17609717  1.50000000
C   607.05000000  23.63560932  1.50000000
C   607.05000000  26.09512147  1.50000000
C   607.76000000  2.72975607  1.50000000
C   607.76000000  5.18926822  1.50000000
C   607.76000000  7.64878037  1.50000000
C   607.76000000  10.10829251  1.50000000
C   607.76000000  12.56780466  1.50000000
C   607.76000000  15.02731681  1.50000000
C   607.76000000  17.48682895  1.50000000
C   607.76000000  19.94634110  1.50000000
C   607.76000000  22.40585325  1.50000000
C   607.76000000  24.86536539  1.50000000
C   609.18000000  2.72975607  1.50000000
C   609.18000000  5.18926822  1.50000000
C   609.18000000  7.64878037  1.50000000
C   609.18000000  10.10829251  1.50000000
C   609.18000000  12.56780466  1.50000000
C   609.18000000  15.02731681  1.50000000
C   609.18000000  17.48682895  1.50000000
C   609.18000000  19.94634110  1.50000000
C   609.18000000  22.40585325  1.50000000
C   609.18000000  24.86536539  1.50000000
C   609.89000000  1.50000000  1.50000000
C   609.89000000  3.95951215  1.50000000
C   609.89000000  6.41902429  1.50000000
C   609.89000000  8.87853644  1.50000000
C   609.89000000  11.33804859  1.50000000
C   609.89000000  13.79756073  1.50000000
C   609.89000000  16.25707288  1.50000000
C   609.89000000  18.71658503  1.50000000
C   609.89000000  21.17609717  1.50000000
C   609.89000000  23.63560932  1.50000000
C   609.89000000  26.09512147  1.50000000
C   611.31000000  1.50000000  1.50000000
C   611.31000000  3.95951215  1.50000000
C   611.31000000  6.41902429  1.50000000
C   611.31000000  8.87853644  1.50000000
C   611.31000000  11.33804859  1.50000000
C   611.31000000  13.79756073  1.50000000
C   611.31000000  16.25707288  1.50000000
C   611.31000000  18.71658503  1.50000000
C   611.31000000  21.17609717  1.50000000
C   611.31000000  23.63560932  1.50000000
C   611.31000000  26.09512147  1.50000000
C   612.02000000  2.72975607  1.50000000
C   612.02000000  5.18926822  1.50000000
C   612.02000000  7.64878037  1.50000000
C   612.02000000  10.10829251  1.50000000
C   612.02000000  12.56780466  1.50000000
C   612.02000000  15.02731681  1.50000000
C   612.02000000  17.48682895  1.50000000
C   612.02000000  19.94634110  1.50000000
C   612.02000000  22.40585325  1.50000000
C   612.02000000  24.86536539  1.50000000
C   613.44000000  2.72975607  1.50000000
C   613.44000000  5.18926822  1.50000000
C   613.44000000  7.64878037  1.50000000
C   613.44000000  10.10829251  1.50000000
C   613.44000000  12.56780466  1.50000000
C   613.44000000  15.02731681  1.50000000
C   613.44000000  17.48682895  1.50000000
C   613.44000000  19.94634110  1.50000000
C   613.44000000  22.40585325  1.50000000
C   613.44000000  24.86536539  1.50000000
C   614.15000000  1.50000000  1.50000000
C   614.15000000  3.95951215  1.50000000
C   614.15000000  6.41902429  1.50000000
C   614.15000000  8.87853644  1.50000000
C   614.15000000  11.33804859  1.50000000
C   614.15000000  13.79756073  1.50000000
C   614.15000000  16.25707288  1.50000000
C   614.15000000  18.71658503  1.50000000
C   614.15000000  21.17609717  1.50000000
C   614.15000000  23.63560932  1.50000000
C   614.15000000  26.09512147  1.50000000
C   615.57000000  1.50000000  1.50000000
C   615.57000000  3.95951215  1.50000000
C   615.57000000  6.41902429  1.50000000
C   615.57000000  8.87853644  1.50000000
C   615.57000000  11.33804859  1.50000000
C   615.57000000  13.79756073  1.50000000
C   615.57000000  16.25707288  1.50000000
C   615.57000000  18.71658503  1.50000000
C   615.57000000  21.17609717  1.50000000
C   615.57000000  23.63560932  1.50000000
C   615.57000000  26.09512147  1.50000000
C   616.28000000  2.72975607  1.50000000
C   616.28000000  5.18926822  1.50000000
C   616.28000000  7.64878037  1.50000000
C   616.28000000  10.10829251  1.50000000
C   616.28000000  12.56780466  1.50000000
C   616.28000000  15.02731681  1.50000000
C   616.28000000  17.48682895  1.50000000
C   616.28000000  19.94634110  1.50000000
C   616.28000000  22.40585325  1.50000000
C   616.28000000  24.86536539  1.50000000
C   617.70000000  2.72975607  1.50000000
C   617.70000000  5.18926822  1.50000000
C   617.70000000  7.64878037  1.50000000
C   617.70000000  10.10829251  1.50000000
C   617.70000000  12.56780466  1.50000000
C   617.70000000  15.02731681  1.50000000
C   617.70000000  17.48682895  1.50000000
C   617.70000000  19.94634110  1.50000000
C   617.70000000  22.40585325  1.50000000
C   617.70000000  24.86536539  1.50000000
C   618.41000000  1.50000000  1.50000000
C   618.41000000  3.95951215  1.50000000
C   618.41000000  6.41902429  1.50000000
C   618.41000000  8.87853644  1.50000000
C   618.41000000  11.33804859  1.50000000
C   618.41000000  13.79756073  1.50000000
C   618.41000000  16.25707288  1.50000000
C   618.41000000  18.71658503  1.50000000
C   618.41000000  21.17609717  1.50000000
C   618.41000000  23.63560932  1.50000000
C   618.41000000  26.09512147  1.50000000
C   619.83000000  1.50000000  1.50000000
C   619.83000000  3.95951215  1.50000000
C   619.83000000  6.41902429  1.50000000
C   619.83000000  8.87853644  1.50000000
C   619.83000000  11.33804859  1.50000000
C   619.83000000  13.79756073  1.50000000
C   619.83000000  16.25707288  1.50000000
C   619.83000000  18.71658503  1.50000000
C   619.83000000  21.17609717  1.50000000
C   619.83000000  23.63560932  1.50000000
C   619.83000000  26.09512147  1.50000000
C   620.54000000  2.72975607  1.50000000
C   620.54000000  5.18926822  1.50000000
C   620.54000000  7.64878037  1.50000000
C   620.54000000  10.10829251  1.50000000
C   620.54000000  12.56780466  1.50000000
C   620.54000000  15.02731681  1.50000000
C   620.54000000  17.48682895  1.50000000
C   620.54000000  19.94634110  1.50000000
C   620.54000000  22.40585325  1.50000000
C   620.54000000  24.86536539  1.50000000
C   621.96000000  2.72975607  1.50000000
C   621.96000000  5.18926822  1.50000000
C   621.96000000  7.64878037  1.50000000
C   621.96000000  10.10829251  1.50000000
C   621.96000000  12.56780466  1.50000000
C   621.96000000  15.02731681  1.50000000
C   621.96000000  17.48682895  1.50000000
C   621.96000000  19.94634110  1.50000000
C   621.96000000  22.40585325  1.50000000
C   621.96000000  24.86536539  1.50000000
C   622.67000000  1.50000000  1.50000000
C   622.67000000  3.95951215  1.50000000
C   622.67000000  6.41902429  1.50000000
C   622.67000000  8.87853644  1.50000000
C   622.67000000  11.33804859  1.50000000
C   622.67000000  13.79756073  1.50000000
C   622.67000000  16.25707288  1.50000000
C   622.67000000  18.71658503  1.50000000
C   622.67000000  21.17609717  1.50000000
C   622.67000000  23.63560932  1.50000000
C   622.67000000  26.09512147  1.50000000
C   624.09000000  1.50000000  1.50000000
C   624.09000000  3.95951215  1.50000000
C   624.09000000  6.41902429  1.50000000
C   624.09000000  8.87853644  1.50000000
C   624.09000000  11.33804859  1.50000000
C   624.09000000  13.79756073  1.50000000
C   624.09000000  16.25707288  1.50000000
C   624.09000000  18.71658503  1.50000000
C   624.09000000  21.17609717  1.50000000
C   624.09000000  23.63560932  1.50000000
C   624.09000000  26.09512147  1.50000000
C   624.80000000  2.72975607  1.50000000
C   624.80000000  5.18926822  1.50000000
C   624.80000000  7.64878037  1.50000000
C   624.80000000  10.10829251  1.50000000
C   624.80000000  12.56780466  1.50000000
C   624.80000000  15.02731681  1.50000000
C   624.80000000  17.48682895  1.50000000
C   624.80000000  19.94634110  1.50000000
C   624.80000000  22.40585325  1.50000000
C   624.80000000  24.86536539  1.50000000
C   626.22000000  2.72975607  1.50000000
C   626.22000000  5.18926822  1.50000000
C   626.22000000  7.64878037  1.50000000
C   626.22000000  10.10829251  1.50000000
C   626.22000000  12.56780466  1.50000000
C   626.22000000  15.02731681  1.50000000
C   626.22000000  17.48682895  1.50000000
C   626.22000000  19.94634110  1.50000000
C   626.22000000  22.40585325  1.50000000
C   626.22000000  24.86536539  1.50000000
C   626.93000000  1.50000000  1.50000000
C   626.93000000  3.95951215  1.50000000
C   626.93000000  6.41902429  1.50000000
C   626.93000000  8.87853644  1.50000000
C   626.93000000  11.33804859  1.50000000
C   626.93000000  13.79756073  1.50000000
C   626.93000000  16.25707288  1.50000000
C   626.93000000  18.71658503  1.50000000
C   626.93000000  21.17609717  1.50000000
C   626.93000000  23.63560932  1.50000000
C   626.93000000  26.09512147  1.50000000
C   628.35000000  1.50000000  1.50000000
C   628.35000000  3.95951215  1.50000000
C   628.35000000  6.41902429  1.50000000
C   628.35000000  8.87853644  1.50000000
C   628.35000000  11.33804859  1.50000000
C   628.35000000  13.79756073  1.50000000
C   628.35000000  16.25707288  1.50000000
C   628.35000000  18.71658503  1.50000000
C   628.35000000  21.17609717  1.50000000
C   628.35000000  23.63560932  1.50000000
C   628.35000000  26.09512147  1.50000000
C   629.06000000  2.72975607  1.50000000
C   629.06000000  5.18926822  1.50000000
C   629.06000000  7.64878037  1.50000000
C   629.06000000  10.10829251  1.50000000
C   629.06000000  12.56780466  1.50000000
C   629.06000000  15.02731681  1.50000000
C   629.06000000  17.48682895  1.50000000
C   629.06000000  19.94634110  1.50000000
C   629.06000000  22.40585325  1.50000000
C   629.06000000  24.86536539  1.50000000
C   630.48000000  2.72975607  1.50000000
C   630.48000000  5.18926822  1.50000000
C   630.48000000  7.64878037  1.50000000
C   630.48000000  10.10829251  1.50000000
C   630.48000000  12.56780466  1.50000000
C   630.48000000  15.02731681  1.50000000
C   630.48000000  17.48682895  1.50000000
C   630.48000000  19.94634110  1.50000000
C   630.48000000  22.40585325  1.50000000
C   630.48000000  24.86536539  1.50000000
C   631.19000000  1.50000000  1.50000000
C   631.19000000  3.95951215  1.50000000
C   631.19000000  6.41902429  1.50000000
C   631.19000000  8.87853644  1.50000000
C   631.19000000  11.33804859  1.50000000
C   631.19000000  13.79756073  1.50000000
C   631.19000000  16.25707288  1.50000000
C   631.19000000  18.71658503  1.50000000
C   631.19000000  21.17609717  1.50000000
C   631.19000000  23.63560932  1.50000000
C   631.19000000  26.09512147  1.50000000
C   632.61000000  1.50000000  1.50000000
C   632.61000000  3.95951215  1.50000000
C   632.61000000  6.41902429  1.50000000
C   632.61000000  8.87853644  1.50000000
C   632.61000000  11.33804859  1.50000000
C   632.61000000  13.79756073  1.50000000
C   632.61000000  16.25707288  1.50000000
C   632.61000000  18.71658503  1.50000000
C   632.61000000  21.17609717  1.50000000
C   632.61000000  23.63560932  1.50000000
C   632.61000000  26.09512147  1.50000000
C   633.32000000  2.72975607  1.50000000
C   633.32000000  5.18926822  1.50000000
C   633.32000000  7.64878037  1.50000000
C   633.32000000  10.10829251  1.50000000
C   633.32000000  12.56780466  1.50000000
C   633.32000000  15.02731681  1.50000000
C   633.32000000  17.48682895  1.50000000
C   633.32000000  19.94634110  1.50000000
C   633.32000000  22.40585325  1.50000000
C   633.32000000  24.86536539  1.50000000
C   634.74000000  2.72975607  1.50000000
C   634.74000000  5.18926822  1.50000000
C   634.74000000  7.64878037  1.50000000
C   634.74000000  10.10829251  1.50000000
C   634.74000000  12.56780466  1.50000000
C   634.74000000  15.02731681  1.50000000
C   634.74000000  17.48682895  1.50000000
C   634.74000000  19.94634110  1.50000000
C   634.74000000  22.40585325  1.50000000
C   634.74000000  24.86536539  1.50000000
C   635.45000000  1.50000000  1.50000000
C   635.45000000  3.95951215  1.50000000
C   635.45000000  6.41902429  1.50000000
C   635.45000000  8.87853644  1.50000000
C   635.45000000  11.33804859  1.50000000
C   635.45000000  13.79756073  1.50000000
C   635.45000000  16.25707288  1.50000000
C   635.45000000  18.71658503  1.50000000
C   635.45000000  21.17609717  1.50000000
C   635.45000000  23.63560932  1.50000000
C   635.45000000  26.09512147  1.50000000
C   636.87000000  1.50000000  1.50000000
C   636.87000000  3.95951215  1.50000000
C   636.87000000  6.41902429  1.50000000
C   636.87000000  8.87853644  1.50000000
C   636.87000000  11.33804859  1.50000000
C   636.87000000  13.79756073  1.50000000
C   636.87000000  16.25707288  1.50000000
C   636.87000000  18.71658503  1.50000000
C   636.87000000  21.17609717  1.50000000
C   636.87000000  23.63560932  1.50000000
C   636.87000000  26.09512147  1.50000000
C   637.58000000  2.72975607  1.50000000
C   637.58000000  5.18926822  1.50000000
C   637.58000000  7.64878037  1.50000000
C   637.58000000  10.10829251  1.50000000
C   637.58000000  12.56780466  1.50000000
C   637.58000000  15.02731681  1.50000000
C   637.58000000  17.48682895  1.50000000
C   637.58000000  19.94634110  1.50000000
C   637.58000000  22.40585325  1.50000000
C   637.58000000  24.86536539  1.50000000
C   639.00000000  2.72975607  1.50000000
C   639.00000000  5.18926822  1.50000000
C   639.00000000  7.64878037  1.50000000
C   639.00000000  10.10829251  1.50000000
C   639.00000000  12.56780466  1.50000000
C   639.00000000  15.02731681  1.50000000
C   639.00000000  17.48682895  1.50000000
C   639.00000000  19.94634110  1.50000000
C   639.00000000  22.40585325  1.50000000
C   639.00000000  24.86536539  1.50000000
C   639.71000000  1.50000000  1.50000000
C   639.71000000  3.95951215  1.50000000
C   639.71000000  6.41902429  1.50000000
C   639.71000000  8.87853644  1.50000000
C   639.71000000  11.33804859  1.50000000
C   639.71000000  13.79756073  1.50000000
C   639.71000000  16.25707288  1.50000000
C   639.71000000  18.71658503  1.50000000
C   639.71000000  21.17609717  1.50000000
C   639.71000000  23.63560932  1.50000000
C   639.71000000  26.09512147  1.50000000
C   641.13000000  1.50000000  1.50000000
C   641.13000000  3.95951215  1.50000000
C   641.13000000  6.41902429  1.50000000
C   641.13000000  8.87853644  1.50000000
C   641.13000000  11.33804859  1.50000000
C   641.13000000  13.79756073  1.50000000
C   641.13000000  16.25707288  1.50000000
C   641.13000000  18.71658503  1.50000000
C   641.13000000  21.17609717  1.50000000
C   641.13000000  23.63560932  1.50000000
C   641.13000000  26.09512147  1.50000000
C   641.84000000  2.72975607  1.50000000
C   641.84000000  5.18926822  1.50000000
C   641.84000000  7.64878037  1.50000000
C   641.84000000  10.10829251  1.50000000
C   641.84000000  12.56780466  1.50000000
C   641.84000000  15.02731681  1.50000000
C   641.84000000  17.48682895  1.50000000
C   641.84000000  19.94634110  1.50000000
C   641.84000000  22.40585325  1.50000000
C   641.84000000  24.86536539  1.50000000
C   643.26000000  2.72975607  1.50000000
C   643.26000000  5.18926822  1.50000000
C   643.26000000  7.64878037  1.50000000
C   643.26000000  10.10829251  1.50000000
C   643.26000000  12.56780466  1.50000000
C   643.26000000  15.02731681  1.50000000
C   643.26000000  17.48682895  1.50000000
C   643.26000000  19.94634110  1.50000000
C   643.26000000  22.40585325  1.50000000
C   643.26000000  24.86536539  1.50000000
C   643.97000000  1.50000000  1.50000000
C   643.97000000  3.95951215  1.50000000
C   643.97000000  6.41902429  1.50000000
C   643.97000000  8.87853644  1.50000000
C   643.97000000  11.33804859  1.50000000
C   643.97000000  13.79756073  1.50000000
C   643.97000000  16.25707288  1.50000000
C   643.97000000  18.71658503  1.50000000
C   643.97000000  21.17609717  1.50000000
C   643.97000000  23.63560932  1.50000000
C   643.97000000  26.09512147  1.50000000
C   645.39000000  1.50000000  1.50000000
C   645.39000000  3.95951215  1.50000000
C   645.39000000  6.41902429  1.50000000
C   645.39000000  8.87853644  1.50000000
C   645.39000000  11.33804859  1.50000000
C   645.39000000  13.79756073  1.50000000
C   645.39000000  16.25707288  1.50000000
C   645.39000000  18.71658503  1.50000000
C   645.39000000  21.17609717  1.50000000
C   645.39000000  23.63560932  1.50000000
C   645.39000000  26.09512147  1.50000000
C   646.10000000  2.72975607  1.50000000
C   646.10000000  5.18926822  1.50000000
C   646.10000000  7.64878037  1.50000000
C   646.10000000  10.10829251  1.50000000
C   646.10000000  12.56780466  1.50000000
C   646.10000000  15.02731681  1.50000000
C   646.10000000  17.48682895  1.50000000
C   646.10000000  19.94634110  1.50000000
C   646.10000000  22.40585325  1.50000000
C   646.10000000  24.86536539  1.50000000
C   647.52000000  2.72975607  1.50000000
C   647.52000000  5.18926822  1.50000000
C   647.52000000  7.64878037  1.50000000
C   647.52000000  10.10829251  1.50000000
C   647.52000000  12.56780466  1.50000000
C   647.52000000  15.02731681  1.50000000
C   647.52000000  17.48682895  1.50000000
C   647.52000000  19.94634110  1.50000000
C   647.52000000  22.40585325  1.50000000
C   647.52000000  24.86536539  1.50000000
C   648.23000000  1.50000000  1.50000000
C   648.23000000  3.95951215  1.50000000
C   648.23000000  6.41902429  1.50000000
C   648.23000000  8.87853644  1.50000000
C   648.23000000  11.33804859  1.50000000
C   648.23000000  13.79756073  1.50000000
C   648.23000000  16.25707288  1.50000000
C   648.23000000  18.71658503  1.50000000
C   648.23000000  21.17609717  1.50000000
C   648.23000000  23.63560932  1.50000000
C   648.23000000  26.09512147  1.50000000
C   649.65000000  1.50000000  1.50000000
C   649.65000000  3.95951215  1.50000000
C   649.65000000  6.41902429  1.50000000
C   649.65000000  8.87853644  1.50000000
C   649.65000000  11.33804859  1.50000000
C   649.65000000  13.79756073  1.50000000
C   649.65000000  16.25707288  1.50000000
C   649.65000000  18.71658503  1.50000000
C   649.65000000  21.17609717  1.50000000
C   649.65000000  23.63560932  1.50000000
C   649.65000000  26.09512147  1.50000000
C   650.36000000  2.72975607  1.50000000
C   650.36000000  5.18926822  1.50000000
C   650.36000000  7.64878037  1.50000000
C   650.36000000  10.10829251  1.50000000
C   650.36000000  12.56780466  1.50000000
C   650.36000000  15.02731681  1.50000000
C   650.36000000  17.48682895  1.50000000
C   650.36000000  19.94634110  1.50000000
C   650.36000000  22.40585325  1.50000000
C   650.36000000  24.86536539  1.50000000
C   651.78000000  2.72975607  1.50000000
C   651.78000000  5.18926822  1.50000000
C   651.78000000  7.64878037  1.50000000
C   651.78000000  10.10829251  1.50000000
C   651.78000000  12.56780466  1.50000000
C   651.78000000  15.02731681  1.50000000
C   651.78000000  17.48682895  1.50000000
C   651.78000000  19.94634110  1.50000000
C   651.78000000  22.40585325  1.50000000
C   651.78000000  24.86536539  1.50000000
C   652.49000000  1.50000000  1.50000000
C   652.49000000  3.95951215  1.50000000
C   652.49000000  6.41902429  1.50000000
C   652.49000000  8.87853644  1.50000000
C   652.49000000  11.33804859  1.50000000
C   652.49000000  13.79756073  1.50000000
C   652.49000000  16.25707288  1.50000000
C   652.49000000  18.71658503  1.50000000
C   652.49000000  21.17609717  1.50000000
C   652.49000000  23.63560932  1.50000000
C   652.49000000  26.09512147  1.50000000
C   653.91000000  1.50000000  1.50000000
C   653.91000000  3.95951215  1.50000000
C   653.91000000  6.41902429  1.50000000
C   653.91000000  8.87853644  1.50000000
C   653.91000000  11.33804859  1.50000000
C   653.91000000  13.79756073  1.50000000
C   653.91000000  16.25707288  1.50000000
C   653.91000000  18.71658503  1.50000000
C   653.91000000  21.17609717  1.50000000
C   653.91000000  23.63560932  1.50000000
C   653.91000000  26.09512147  1.50000000
C   654.62000000  2.72975607  1.50000000
C   654.62000000  5.18926822  1.50000000
C   654.62000000  7.64878037  1.50000000
C   654.62000000  10.10829251  1.50000000
C   654.62000000  12.56780466  1.50000000
C   654.62000000  15.02731681  1.50000000
C   654.62000000  17.48682895  1.50000000
C   654.62000000  19.94634110  1.50000000
C   654.62000000  22.40585325  1.50000000
C   654.62000000  24.86536539  1.50000000
C   656.04000000  2.72975607  1.50000000
C   656.04000000  5.18926822  1.50000000
C   656.04000000  7.64878037  1.50000000
C   656.04000000  10.10829251  1.50000000
C   656.04000000  12.56780466  1.50000000
C   656.04000000  15.02731681  1.50000000
C   656.04000000  17.48682895  1.50000000
C   656.04000000  19.94634110  1.50000000
C   656.04000000  22.40585325  1.50000000
C   656.04000000  24.86536539  1.50000000
C   656.75000000  1.50000000  1.50000000
C   656.75000000  3.95951215  1.50000000
C   656.75000000  6.41902429  1.50000000
C   656.75000000  8.87853644  1.50000000
C   656.75000000  11.33804859  1.50000000
C   656.75000000  13.79756073  1.50000000
C   656.75000000  16.25707288  1.50000000
C   656.75000000  18.71658503  1.50000000
C   656.75000000  21.17609717  1.50000000
C   656.75000000  23.63560932  1.50000000
C   656.75000000  26.09512147  1.50000000
C   658.17000000  1.50000000  1.50000000
C   658.17000000  3.95951215  1.50000000
C   658.17000000  6.41902429  1.50000000
C   658.17000000  8.87853644  1.50000000
C   658.17000000  11.33804859  1.50000000
C   658.17000000  13.79756073  1.50000000
C   658.17000000  16.25707288  1.50000000
C   658.17000000  18.71658503  1.50000000
C   658.17000000  21.17609717  1.50000000
C   658.17000000  23.63560932  1.50000000
C   658.17000000  26.09512147  1.50000000
C   658.88000000  2.72975607  1.50000000
C   658.88000000  5.18926822  1.50000000
C   658.88000000  7.64878037  1.50000000
C   658.88000000  10.10829251  1.50000000
C   658.88000000  12.56780466  1.50000000
C   658.88000000  15.02731681  1.50000000
C   658.88000000  17.48682895  1.50000000
C   658.88000000  19.94634110  1.50000000
C   658.88000000  22.40585325  1.50000000
C   658.88000000  24.86536539  1.50000000
C   660.30000000  2.72975607  1.50000000
C   660.30000000  5.18926822  1.50000000
C   660.30000000  7.64878037  1.50000000
C   660.30000000  10.10829251  1.50000000
C   660.30000000  12.56780466  1.50000000
C   660.30000000  15.02731681  1.50000000
C   660.30000000  17.48682895  1.50000000
C   660.30000000  19.94634110  1.50000000
C   660.30000000  22.40585325  1.50000000
C   660.30000000  24.86536539  1.50000000
C   661.01000000  1.50000000  1.50000000
C   661.01000000  3.95951215  1.50000000
C   661.01000000  6.41902429  1.50000000
C   661.01000000  8.87853644  1.50000000
C   661.01000000  11.33804859  1.50000000
C   661.01000000  13.79756073  1.50000000
C   661.01000000  16.25707288  1.50000000
C   661.01000000  18.71658503  1.50000000
C   661.01000000  21.17609717  1.50000000
C   661.01000000  23.63560932  1.50000000
C   661.01000000  26.09512147  1.50000000
C   662.43000000  1.50000000  1.50000000
C   662.43000000  3.95951215  1.50000000
C   662.43000000  6.41902429  1.50000000
C   662.43000000  8.87853644  1.50000000
C   662.43000000  11.33804859  1.50000000
C   662.43000000  13.79756073  1.50000000
C   662.43000000  16.25707288  1.50000000
C   662.43000000  18.71658503  1.50000000
C   662.43000000  21.17609717  1.50000000
C   662.43000000  23.63560932  1.50000000
C   662.43000000  26.09512147  1.50000000
C   663.14000000  2.72975607  1.50000000
C   663.14000000  5.18926822  1.50000000
C   663.14000000  7.64878037  1.50000000
C   663.14000000  10.10829251  1.50000000
C   663.14000000  12.56780466  1.50000000
C   663.14000000  15.02731681  1.50000000
C   663.14000000  17.48682895  1.50000000
C   663.14000000  19.94634110  1.50000000
C   663.14000000  22.40585325  1.50000000
C   663.14000000  24.86536539  1.50000000
C   664.56000000  2.72975607  1.50000000
C   664.56000000  5.18926822  1.50000000
C   664.56000000  7.64878037  1.50000000
C   664.56000000  10.10829251  1.50000000
C   664.56000000  12.56780466  1.50000000
C   664.56000000  15.02731681  1.50000000
C   664.56000000  17.48682895  1.50000000
C   664.56000000  19.94634110  1.50000000
C   664.56000000  22.40585325  1.50000000
C   664.56000000  24.86536539  1.50000000
C   665.27000000  1.50000000  1.50000000
C   665.27000000  3.95951215  1.50000000
C   665.27000000  6.41902429  1.50000000
C   665.27000000  8.87853644  1.50000000
C   665.27000000  11.33804859  1.50000000
C   665.27000000  13.79756073  1.50000000
C   665.27000000  16.25707288  1.50000000
C   665.27000000  18.71658503  1.50000000
C   665.27000000  21.17609717  1.50000000
C   665.27000000  23.63560932  1.50000000
C   665.27000000  26.09512147  1.50000000
C   666.69000000  1.50000000  1.50000000
C   666.69000000  3.95951215  1.50000000
C   666.69000000  6.41902429  1.50000000
C   666.69000000  8.87853644  1.50000000
C   666.69000000  11.33804859  1.50000000
C   666.69000000  13.79756073  1.50000000
C   666.69000000  16.25707288  1.50000000
C   666.69000000  18.71658503  1.50000000
C   666.69000000  21.17609717  1.50000000
C   666.69000000  23.63560932  1.50000000
C   666.69000000  26.09512147  1.50000000
C   667.40000000  2.72975607  1.50000000
C   667.40000000  5.18926822  1.50000000
C   667.40000000  7.64878037  1.50000000
C   667.40000000  10.10829251  1.50000000
C   667.40000000  12.56780466  1.50000000
C   667.40000000  15.02731681  1.50000000
C   667.40000000  17.48682895  1.50000000
C   667.40000000  19.94634110  1.50000000
C   667.40000000  22.40585325  1.50000000
C   667.40000000  24.86536539  1.50000000
C   668.82000000  2.72975607  1.50000000
C   668.82000000  5.18926822  1.50000000
C   668.82000000  7.64878037  1.50000000
C   668.82000000  10.10829251  1.50000000
C   668.82000000  12.56780466  1.50000000
C   668.82000000  15.02731681  1.50000000
C   668.82000000  17.48682895  1.50000000
C   668.82000000  19.94634110  1.50000000
C   668.82000000  22.40585325  1.50000000
C   668.82000000  24.86536539  1.50000000
C   669.53000000  1.50000000  1.50000000
C   669.53000000  3.95951215  1.50000000
C   669.53000000  6.41902429  1.50000000
C   669.53000000  8.87853644  1.50000000
C   669.53000000  11.33804859  1.50000000
C   669.53000000  13.79756073  1.50000000
C   669.53000000  16.25707288  1.50000000
C   669.53000000  18.71658503  1.50000000
C   669.53000000  21.17609717  1.50000000
C   669.53000000  23.63560932  1.50000000
C   669.53000000  26.09512147  1.50000000
C   670.95000000  1.50000000  1.50000000
C   670.95000000  3.95951215  1.50000000
C   670.95000000  6.41902429  1.50000000
C   670.95000000  8.87853644  1.50000000
C   670.95000000  11.33804859  1.50000000
C   670.95000000  13.79756073  1.50000000
C   670.95000000  16.25707288  1.50000000
C   670.95000000  18.71658503  1.50000000
C   670.95000000  21.17609717  1.50000000
C   670.95000000  23.63560932  1.50000000
C   670.95000000  26.09512147  1.50000000
C   671.66000000  2.72975607  1.50000000
C   671.66000000  5.18926822  1.50000000
C   671.66000000  7.64878037  1.50000000
C   671.66000000  10.10829251  1.50000000
C   671.66000000  12.56780466  1.50000000
C   671.66000000  15.02731681  1.50000000
C   671.66000000  17.48682895  1.50000000
C   671.66000000  19.94634110  1.50000000
C   671.66000000  22.40585325  1.50000000
C   671.66000000  24.86536539  1.50000000
C   673.08000000  2.72975607  1.50000000
C   673.08000000  5.18926822  1.50000000
C   673.08000000  7.64878037  1.50000000
C   673.08000000  10.10829251  1.50000000
C   673.08000000  12.56780466  1.50000000
C   673.08000000  15.02731681  1.50000000
C   673.08000000  17.48682895  1.50000000
C   673.08000000  19.94634110  1.50000000
C   673.08000000  22.40585325  1.50000000
C   673.08000000  24.86536539  1.50000000
C   673.79000000  1.50000000  1.50000000
C   673.79000000  3.95951215  1.50000000
C   673.79000000  6.41902429  1.50000000
C   673.79000000  8.87853644  1.50000000
C   673.79000000  11.33804859  1.50000000
C   673.79000000  13.79756073  1.50000000
C   673.79000000  16.25707288  1.50000000
C   673.79000000  18.71658503  1.50000000
C   673.79000000  21.17609717  1.50000000
C   673.79000000  23.63560932  1.50000000
C   673.79000000  26.09512147  1.50000000
C   675.21000000  1.50000000  1.50000000
C   675.21000000  3.95951215  1.50000000
C   675.21000000  6.41902429  1.50000000
C   675.21000000  8.87853644  1.50000000
C   675.21000000  11.33804859  1.50000000
C   675.21000000  13.79756073  1.50000000
C   675.21000000  16.25707288  1.50000000
C   675.21000000  18.71658503  1.50000000
C   675.21000000  21.17609717  1.50000000
C   675.21000000  23.63560932  1.50000000
C   675.21000000  26.09512147  1.50000000
C   675.92000000  2.72975607  1.50000000
C   675.92000000  5.18926822  1.50000000
C   675.92000000  7.64878037  1.50000000
C   675.92000000  10.10829251  1.50000000
C   675.92000000  12.56780466  1.50000000
C   675.92000000  15.02731681  1.50000000
C   675.92000000  17.48682895  1.50000000
C   675.92000000  19.94634110  1.50000000
C   675.92000000  22.40585325  1.50000000
C   675.92000000  24.86536539  1.50000000
C   677.34000000  2.72975607  1.50000000
C   677.34000000  5.18926822  1.50000000
C   677.34000000  7.64878037  1.50000000
C   677.34000000  10.10829251  1.50000000
C   677.34000000  12.56780466  1.50000000
C   677.34000000  15.02731681  1.50000000
C   677.34000000  17.48682895  1.50000000
C   677.34000000  19.94634110  1.50000000
C   677.34000000  22.40585325  1.50000000
C   677.34000000  24.86536539  1.50000000
C   678.05000000  1.50000000  1.50000000
C   678.05000000  3.95951215  1.50000000
C   678.05000000  6.41902429  1.50000000
C   678.05000000  8.87853644  1.50000000
C   678.05000000  11.33804859  1.50000000
C   678.05000000  13.79756073  1.50000000
C   678.05000000  16.25707288  1.50000000
C   678.05000000  18.71658503  1.50000000
C   678.05000000  21.17609717  1.50000000
C   678.05000000  23.63560932  1.50000000
C   678.05000000  26.09512147  1.50000000
C   679.47000000  1.50000000  1.50000000
C   679.47000000  3.95951215  1.50000000
C   679.47000000  6.41902429  1.50000000
C   679.47000000  8.87853644  1.50000000
C   679.47000000  11.33804859  1.50000000
C   679.47000000  13.79756073  1.50000000
C   679.47000000  16.25707288  1.50000000
C   679.47000000  18.71658503  1.50000000
C   679.47000000  21.17609717  1.50000000
C   679.47000000  23.63560932  1.50000000
C   679.47000000  26.09512147  1.50000000
C   680.18000000  2.72975607  1.50000000
C   680.18000000  5.18926822  1.50000000
C   680.18000000  7.64878037  1.50000000
C   680.18000000  10.10829251  1.50000000
C   680.18000000  12.56780466  1.50000000
C   680.18000000  15.02731681  1.50000000
C   680.18000000  17.48682895  1.50000000
C   680.18000000  19.94634110  1.50000000
C   680.18000000  22.40585325  1.50000000
C   680.18000000  24.86536539  1.50000000
C   681.60000000  2.72975607  1.50000000
C   681.60000000  5.18926822  1.50000000
C   681.60000000  7.64878037  1.50000000
C   681.60000000  10.10829251  1.50000000
C   681.60000000  12.56780466  1.50000000
C   681.60000000  15.02731681  1.50000000
C   681.60000000  17.48682895  1.50000000
C   681.60000000  19.94634110  1.50000000
C   681.60000000  22.40585325  1.50000000
C   681.60000000  24.86536539  1.50000000
C   682.31000000  1.50000000  1.50000000
C   682.31000000  3.95951215  1.50000000
C   682.31000000  6.41902429  1.50000000
C   682.31000000  8.87853644  1.50000000
C   682.31000000  11.33804859  1.50000000
C   682.31000000  13.79756073  1.50000000
C   682.31000000  16.25707288  1.50000000
C   682.31000000  18.71658503  1.50000000
C   682.31000000  21.17609717  1.50000000
C   682.31000000  23.63560932  1.50000000
C   682.31000000  26.09512147  1.50000000
C   683.73000000  1.50000000  1.50000000
C   683.73000000  3.95951215  1.50000000
C   683.73000000  6.41902429  1.50000000
C   683.73000000  8.87853644  1.50000000
C   683.73000000  11.33804859  1.50000000
C   683.73000000  13.79756073  1.50000000
C   683.73000000  16.25707288  1.50000000
C   683.73000000  18.71658503  1.50000000
C   683.73000000  21.17609717  1.50000000
C   683.73000000  23.63560932  1.50000000
C   683.73000000  26.09512147  1.50000000
C   684.44000000  2.72975607  1.50000000
C   684.44000000  5.18926822  1.50000000
C   684.44000000  7.64878037  1.50000000
C   684.44000000  10.10829251  1.50000000
C   684.44000000  12.56780466  1.50000000
C   684.44000000  15.02731681  1.50000000
C   684.44000000  17.48682895  1.50000000
C   684.44000000  19.94634110  1.50000000
C   684.44000000  22.40585325  1.50000000
C   684.44000000  24.86536539  1.50000000
C   685.86000000  2.72975607  1.50000000
C   685.86000000  5.18926822  1.50000000
C   685.86000000  7.64878037  1.50000000
C   685.86000000  10.10829251  1.50000000
C   685.86000000  12.56780466  1.50000000
C   685.86000000  15.02731681  1.50000000
C   685.86000000  17.48682895  1.50000000
C   685.86000000  19.94634110  1.50000000
C   685.86000000  22.40585325  1.50000000
C   685.86000000  24.86536539  1.50000000
C   686.57000000  1.50000000  1.50000000
C   686.57000000  3.95951215  1.50000000
C   686.57000000  6.41902429  1.50000000
C   686.57000000  8.87853644  1.50000000
C   686.57000000  11.33804859  1.50000000
C   686.57000000  13.79756073  1.50000000
C   686.57000000  16.25707288  1.50000000
C   686.57000000  18.71658503  1.50000000
C   686.57000000  21.17609717  1.50000000
C   686.57000000  23.63560932  1.50000000
C   686.57000000  26.09512147  1.50000000
C   687.99000000  1.50000000  1.50000000
C   687.99000000  3.95951215  1.50000000
C   687.99000000  6.41902429  1.50000000
C   687.99000000  8.87853644  1.50000000
C   687.99000000  11.33804859  1.50000000
C   687.99000000  13.79756073  1.50000000
C   687.99000000  16.25707288  1.50000000
C   687.99000000  18.71658503  1.50000000
C   687.99000000  21.17609717  1.50000000
C   687.99000000  23.63560932  1.50000000
C   687.99000000  26.09512147  1.50000000
C   688.70000000  2.72975607  1.50000000
C   688.70000000  5.18926822  1.50000000
C   688.70000000  7.64878037  1.50000000
C   688.70000000  10.10829251  1.50000000
C   688.70000000  12.56780466  1.50000000
C   688.70000000  15.02731681  1.50000000
C   688.70000000  17.48682895  1.50000000
C   688.70000000  19.94634110  1.50000000
C   688.70000000  22.40585325  1.50000000
C   688.70000000  24.86536539  1.50000000
C   690.12000000  2.72975607  1.50000000
C   690.12000000  5.18926822  1.50000000
C   690.12000000  7.64878037  1.50000000
C   690.12000000  10.10829251  1.50000000
C   690.12000000  12.56780466  1.50000000
C   690.12000000  15.02731681  1.50000000
C   690.12000000  17.48682895  1.50000000
C   690.12000000  19.94634110  1.50000000
C   690.12000000  22.40585325  1.50000000
C   690.12000000  24.86536539  1.50000000
C   690.83000000  1.50000000  1.50000000
C   690.83000000  3.95951215  1.50000000
C   690.83000000  6.41902429  1.50000000
C   690.83000000  8.87853644  1.50000000
C   690.83000000  11.33804859  1.50000000
C   690.83000000  13.79756073  1.50000000
C   690.83000000  16.25707288  1.50000000
C   690.83000000  18.71658503  1.50000000
C   690.83000000  21.17609717  1.50000000
C   690.83000000  23.63560932  1.50000000
C   690.83000000  26.09512147  1.50000000
C   692.25000000  1.50000000  1.50000000
C   692.25000000  3.95951215  1.50000000
C   692.25000000  6.41902429  1.50000000
C   692.25000000  8.87853644  1.50000000
C   692.25000000  11.33804859  1.50000000
C   692.25000000  13.79756073  1.50000000
C   692.25000000  16.25707288  1.50000000
C   692.25000000  18.71658503  1.50000000
C   692.25000000  21.17609717  1.50000000
C   692.25000000  23.63560932  1.50000000
C   692.25000000  26.09512147  1.50000000
C   692.96000000  2.72975607  1.50000000
C   692.96000000  5.18926822  1.50000000
C   692.96000000  7.64878037  1.50000000
C   692.96000000  10.10829251  1.50000000
C   692.96000000  12.56780466  1.50000000
C   692.96000000  15.02731681  1.50000000
C   692.96000000  17.48682895  1.50000000
C   692.96000000  19.94634110  1.50000000
C   692.96000000  22.40585325  1.50000000
C   692.96000000  24.86536539  1.50000000
C   694.38000000  2.72975607  1.50000000
C   694.38000000  5.18926822  1.50000000
C   694.38000000  7.64878037  1.50000000
C   694.38000000  10.10829251  1.50000000
C   694.38000000  12.56780466  1.50000000
C   694.38000000  15.02731681  1.50000000
C   694.38000000  17.48682895  1.50000000
C   694.38000000  19.94634110  1.50000000
C   694.38000000  22.40585325  1.50000000
C   694.38000000  24.86536539  1.50000000
C   695.09000000  1.50000000  1.50000000
C   695.09000000  3.95951215  1.50000000
C   695.09000000  6.41902429  1.50000000
C   695.09000000  8.87853644  1.50000000
C   695.09000000  11.33804859  1.50000000
C   695.09000000  13.79756073  1.50000000
C   695.09000000  16.25707288  1.50000000
C   695.09000000  18.71658503  1.50000000
C   695.09000000  21.17609717  1.50000000
C   695.09000000  23.63560932  1.50000000
C   695.09000000  26.09512147  1.50000000
C   696.51000000  1.50000000  1.50000000
C   696.51000000  3.95951215  1.50000000
C   696.51000000  6.41902429  1.50000000
C   696.51000000  8.87853644  1.50000000
C   696.51000000  11.33804859  1.50000000
C   696.51000000  13.79756073  1.50000000
C   696.51000000  16.25707288  1.50000000
C   696.51000000  18.71658503  1.50000000
C   696.51000000  21.17609717  1.50000000
C   696.51000000  23.63560932  1.50000000
C   696.51000000  26.09512147  1.50000000
C   697.22000000  2.72975607  1.50000000
C   697.22000000  5.18926822  1.50000000
C   697.22000000  7.64878037  1.50000000
C   697.22000000  10.10829251  1.50000000
C   697.22000000  12.56780466  1.50000000
C   697.22000000  15.02731681  1.50000000
C   697.22000000  17.48682895  1.50000000
C   697.22000000  19.94634110  1.50000000
C   697.22000000  22.40585325  1.50000000
C   697.22000000  24.86536539  1.50000000
C   698.64000000  2.72975607  1.50000000
C   698.64000000  5.18926822  1.50000000
C   698.64000000  7.64878037  1.50000000
C   698.64000000  10.10829251  1.50000000
C   698.64000000  12.56780466  1.50000000
C   698.64000000  15.02731681  1.50000000
C   698.64000000  17.48682895  1.50000000
C   698.64000000  19.94634110  1.50000000
C   698.64000000  22.40585325  1.50000000
C   698.64000000  24.86536539  1.50000000
C   699.35000000  1.50000000  1.50000000
C   699.35000000  3.95951215  1.50000000
C   699.35000000  6.41902429  1.50000000
C   699.35000000  8.87853644  1.50000000
C   699.35000000  11.33804859  1.50000000
C   699.35000000  13.79756073  1.50000000
C   699.35000000  16.25707288  1.50000000
C   699.35000000  18.71658503  1.50000000
C   699.35000000  21.17609717  1.50000000
C   699.35000000  23.63560932  1.50000000
C   699.35000000  26.09512147  1.50000000
C   700.77000000  1.50000000  1.50000000
C   700.77000000  3.95951215  1.50000000
C   700.77000000  6.41902429  1.50000000
C   700.77000000  8.87853644  1.50000000
C   700.77000000  11.33804859  1.50000000
C   700.77000000  13.79756073  1.50000000
C   700.77000000  16.25707288  1.50000000
C   700.77000000  18.71658503  1.50000000
C   700.77000000  21.17609717  1.50000000
C   700.77000000  23.63560932  1.50000000
C   700.77000000  26.09512147  1.50000000
C   701.48000000  2.72975607  1.50000000
C   701.48000000  5.18926822  1.50000000
C   701.48000000  7.64878037  1.50000000
C   701.48000000  10.10829251  1.50000000
C   701.48000000  12.56780466  1.50000000
C   701.48000000  15.02731681  1.50000000
C   701.48000000  17.48682895  1.50000000
C   701.48000000  19.94634110  1.50000000
C   701.48000000  22.40585325  1.50000000
C   701.48000000  24.86536539  1.50000000
C   702.90000000  2.72975607  1.50000000
C   702.90000000  5.18926822  1.50000000
C   702.90000000  7.64878037  1.50000000
C   702.90000000  10.10829251  1.50000000
C   702.90000000  12.56780466  1.50000000
C   702.90000000  15.02731681  1.50000000
C   702.90000000  17.48682895  1.50000000
C   702.90000000  19.94634110  1.50000000
C   702.90000000  22.40585325  1.50000000
C   702.90000000  24.86536539  1.50000000
C   703.61000000  1.50000000  1.50000000
C   703.61000000  3.95951215  1.50000000
C   703.61000000  6.41902429  1.50000000
C   703.61000000  8.87853644  1.50000000
C   703.61000000  11.33804859  1.50000000
C   703.61000000  13.79756073  1.50000000
C   703.61000000  16.25707288  1.50000000
C   703.61000000  18.71658503  1.50000000
C   703.61000000  21.17609717  1.50000000
C   703.61000000  23.63560932  1.50000000
C   703.61000000  26.09512147  1.50000000
C   705.03000000  1.50000000  1.50000000
C   705.03000000  3.95951215  1.50000000
C   705.03000000  6.41902429  1.50000000
C   705.03000000  8.87853644  1.50000000
C   705.03000000  11.33804859  1.50000000
C   705.03000000  13.79756073  1.50000000
C   705.03000000  16.25707288  1.50000000
C   705.03000000  18.71658503  1.50000000
C   705.03000000  21.17609717  1.50000000
C   705.03000000  23.63560932  1.50000000
C   705.03000000  26.09512147  1.50000000
C   705.74000000  2.72975607  1.50000000
C   705.74000000  5.18926822  1.50000000
C   705.74000000  7.64878037  1.50000000
C   705.74000000  10.10829251  1.50000000
C   705.74000000  12.56780466  1.50000000
C   705.74000000  15.02731681  1.50000000
C   705.74000000  17.48682895  1.50000000
C   705.74000000  19.94634110  1.50000000
C   705.74000000  22.40585325  1.50000000
C   705.74000000  24.86536539  1.50000000
C   707.16000000  2.72975607  1.50000000
C   707.16000000  5.18926822  1.50000000
C   707.16000000  7.64878037  1.50000000
C   707.16000000  10.10829251  1.50000000
C   707.16000000  12.56780466  1.50000000
C   707.16000000  15.02731681  1.50000000
C   707.16000000  17.48682895  1.50000000
C   707.16000000  19.94634110  1.50000000
C   707.16000000  22.40585325  1.50000000
C   707.16000000  24.86536539  1.50000000
C   707.87000000  1.50000000  1.50000000
C   707.87000000  3.95951215  1.50000000
C   707.87000000  6.41902429  1.50000000
C   707.87000000  8.87853644  1.50000000
C   707.87000000  11.33804859  1.50000000
C   707.87000000  13.79756073  1.50000000
C   707.87000000  16.25707288  1.50000000
C   707.87000000  18.71658503  1.50000000
C   707.87000000  21.17609717  1.50000000
C   707.87000000  23.63560932  1.50000000
C   707.87000000  26.09512147  1.50000000
C   709.29000000  1.50000000  1.50000000
C   709.29000000  3.95951215  1.50000000
C   709.29000000  6.41902429  1.50000000
C   709.29000000  8.87853644  1.50000000
C   709.29000000  11.33804859  1.50000000
C   709.29000000  13.79756073  1.50000000
C   709.29000000  16.25707288  1.50000000
C   709.29000000  18.71658503  1.50000000
C   709.29000000  21.17609717  1.50000000
C   709.29000000  23.63560932  1.50000000
C   709.29000000  26.09512147  1.50000000
C   710.00000000  2.72975607  1.50000000
C   710.00000000  5.18926822  1.50000000
C   710.00000000  7.64878037  1.50000000
C   710.00000000  10.10829251  1.50000000
C   710.00000000  12.56780466  1.50000000
C   710.00000000  15.02731681  1.50000000
C   710.00000000  17.48682895  1.50000000
C   710.00000000  19.94634110  1.50000000
C   710.00000000  22.40585325  1.50000000
C   710.00000000  24.86536539  1.50000000
C   711.42000000  2.72975607  1.50000000
C   711.42000000  5.18926822  1.50000000
C   711.42000000  7.64878037  1.50000000
C   711.42000000  10.10829251  1.50000000
C   711.42000000  12.56780466  1.50000000
C   711.42000000  15.02731681  1.50000000
C   711.42000000  17.48682895  1.50000000
C   711.42000000  19.94634110  1.50000000
C   711.42000000  22.40585325  1.50000000
C   711.42000000  24.86536539  1.50000000
C   712.13000000  1.50000000  1.50000000
C   712.13000000  3.95951215  1.50000000
C   712.13000000  6.41902429  1.50000000
C   712.13000000  8.87853644  1.50000000
C   712.13000000  11.33804859  1.50000000
C   712.13000000  13.79756073  1.50000000
C   712.13000000  16.25707288  1.50000000
C   712.13000000  18.71658503  1.50000000
C   712.13000000  21.17609717  1.50000000
C   712.13000000  23.63560932  1.50000000
C   712.13000000  26.09512147  1.50000000
C   713.55000000  1.50000000  1.50000000
C   713.55000000  3.95951215  1.50000000
C   713.55000000  6.41902429  1.50000000
C   713.55000000  8.87853644  1.50000000
C   713.55000000  11.33804859  1.50000000
C   713.55000000  13.79756073  1.50000000
C   713.55000000  16.25707288  1.50000000
C   713.55000000  18.71658503  1.50000000
C   713.55000000  21.17609717  1.50000000
C   713.55000000  23.63560932  1.50000000
C   713.55000000  26.09512147  1.50000000
C   714.26000000  2.72975607  1.50000000
C   714.26000000  5.18926822  1.50000000
C   714.26000000  7.64878037  1.50000000
C   714.26000000  10.10829251  1.50000000
C   714.26000000  12.56780466  1.50000000
C   714.26000000  15.02731681  1.50000000
C   714.26000000  17.48682895  1.50000000
C   714.26000000  19.94634110  1.50000000
C   714.26000000  22.40585325  1.50000000
C   714.26000000  24.86536539  1.50000000
C   715.68000000  2.72975607  1.50000000
C   715.68000000  5.18926822  1.50000000
C   715.68000000  7.64878037  1.50000000
C   715.68000000  10.10829251  1.50000000
C   715.68000000  12.56780466  1.50000000
C   715.68000000  15.02731681  1.50000000
C   715.68000000  17.48682895  1.50000000
C   715.68000000  19.94634110  1.50000000
C   715.68000000  22.40585325  1.50000000
C   715.68000000  24.86536539  1.50000000
C   716.39000000  1.50000000  1.50000000
C   716.39000000  3.95951215  1.50000000
C   716.39000000  6.41902429  1.50000000
C   716.39000000  8.87853644  1.50000000
C   716.39000000  11.33804859  1.50000000
C   716.39000000  13.79756073  1.50000000
C   716.39000000  16.25707288  1.50000000
C   716.39000000  18.71658503  1.50000000
C   716.39000000  21.17609717  1.50000000
C   716.39000000  23.63560932  1.50000000
C   716.39000000  26.09512147  1.50000000
C   717.81000000  1.50000000  1.50000000
C   717.81000000  3.95951215  1.50000000
C   717.81000000  6.41902429  1.50000000
C   717.81000000  8.87853644  1.50000000
C   717.81000000  11.33804859  1.50000000
C   717.81000000  13.79756073  1.50000000
C   717.81000000  16.25707288  1.50000000
C   717.81000000  18.71658503  1.50000000
C   717.81000000  21.17609717  1.50000000
C   717.81000000  23.63560932  1.50000000
C   717.81000000  26.09512147  1.50000000
C   718.52000000  2.72975607  1.50000000
C   718.52000000  5.18926822  1.50000000
C   718.52000000  7.64878037  1.50000000
C   718.52000000  10.10829251  1.50000000
C   718.52000000  12.56780466  1.50000000
C   718.52000000  15.02731681  1.50000000
C   718.52000000  17.48682895  1.50000000
C   718.52000000  19.94634110  1.50000000
C   718.52000000  22.40585325  1.50000000
C   718.52000000  24.86536539  1.50000000
C   719.94000000  2.72975607  1.50000000
C   719.94000000  5.18926822  1.50000000
C   719.94000000  7.64878037  1.50000000
C   719.94000000  10.10829251  1.50000000
C   719.94000000  12.56780466  1.50000000
C   719.94000000  15.02731681  1.50000000
C   719.94000000  17.48682895  1.50000000
C   719.94000000  19.94634110  1.50000000
C   719.94000000  22.40585325  1.50000000
C   719.94000000  24.86536539  1.50000000
C   720.65000000  1.50000000  1.50000000
C   720.65000000  3.95951215  1.50000000
C   720.65000000  6.41902429  1.50000000
C   720.65000000  8.87853644  1.50000000
C   720.65000000  11.33804859  1.50000000
C   720.65000000  13.79756073  1.50000000
C   720.65000000  16.25707288  1.50000000
C   720.65000000  18.71658503  1.50000000
C   720.65000000  21.17609717  1.50000000
C   720.65000000  23.63560932  1.50000000
C   720.65000000  26.09512147  1.50000000
C   722.07000000  1.50000000  1.50000000
C   722.07000000  3.95951215  1.50000000
C   722.07000000  6.41902429  1.50000000
C   722.07000000  8.87853644  1.50000000
C   722.07000000  11.33804859  1.50000000
C   722.07000000  13.79756073  1.50000000
C   722.07000000  16.25707288  1.50000000
C   722.07000000  18.71658503  1.50000000
C   722.07000000  21.17609717  1.50000000
C   722.07000000  23.63560932  1.50000000
C   722.07000000  26.09512147  1.50000000
C   722.78000000  2.72975607  1.50000000
C   722.78000000  5.18926822  1.50000000
C   722.78000000  7.64878037  1.50000000
C   722.78000000  10.10829251  1.50000000
C   722.78000000  12.56780466  1.50000000
C   722.78000000  15.02731681  1.50000000
C   722.78000000  17.48682895  1.50000000
C   722.78000000  19.94634110  1.50000000
C   722.78000000  22.40585325  1.50000000
C   722.78000000  24.86536539  1.50000000
C   724.20000000  2.72975607  1.50000000
C   724.20000000  5.18926822  1.50000000
C   724.20000000  7.64878037  1.50000000
C   724.20000000  10.10829251  1.50000000
C   724.20000000  12.56780466  1.50000000
C   724.20000000  15.02731681  1.50000000
C   724.20000000  17.48682895  1.50000000
C   724.20000000  19.94634110  1.50000000
C   724.20000000  22.40585325  1.50000000
C   724.20000000  24.86536539  1.50000000
C   724.91000000  1.50000000  1.50000000
C   724.91000000  3.95951215  1.50000000
C   724.91000000  6.41902429  1.50000000
C   724.91000000  8.87853644  1.50000000
C   724.91000000  11.33804859  1.50000000
C   724.91000000  13.79756073  1.50000000
C   724.91000000  16.25707288  1.50000000
C   724.91000000  18.71658503  1.50000000
C   724.91000000  21.17609717  1.50000000
C   724.91000000  23.63560932  1.50000000
C   724.91000000  26.09512147  1.50000000
C   726.33000000  1.50000000  1.50000000
C   726.33000000  3.95951215  1.50000000
C   726.33000000  6.41902429  1.50000000
C   726.33000000  8.87853644  1.50000000
C   726.33000000  11.33804859  1.50000000
C   726.33000000  13.79756073  1.50000000
C   726.33000000  16.25707288  1.50000000
C   726.33000000  18.71658503  1.50000000
C   726.33000000  21.17609717  1.50000000
C   726.33000000  23.63560932  1.50000000
C   726.33000000  26.09512147  1.50000000
C   727.04000000  2.72975607  1.50000000
C   727.04000000  5.18926822  1.50000000
C   727.04000000  7.64878037  1.50000000
C   727.04000000  10.10829251  1.50000000
C   727.04000000  12.56780466  1.50000000
C   727.04000000  15.02731681  1.50000000
C   727.04000000  17.48682895  1.50000000
C   727.04000000  19.94634110  1.50000000
C   727.04000000  22.40585325  1.50000000
C   727.04000000  24.86536539  1.50000000
C   728.46000000  2.72975607  1.50000000
C   728.46000000  5.18926822  1.50000000
C   728.46000000  7.64878037  1.50000000
C   728.46000000  10.10829251  1.50000000
C   728.46000000  12.56780466  1.50000000
C   728.46000000  15.02731681  1.50000000
C   728.46000000  17.48682895  1.50000000
C   728.46000000  19.94634110  1.50000000
C   728.46000000  22.40585325  1.50000000
C   728.46000000  24.86536539  1.50000000
C   729.17000000  1.50000000  1.50000000
C   729.17000000  3.95951215  1.50000000
C   729.17000000  6.41902429  1.50000000
C   729.17000000  8.87853644  1.50000000
C   729.17000000  11.33804859  1.50000000
C   729.17000000  13.79756073  1.50000000
C   729.17000000  16.25707288  1.50000000
C   729.17000000  18.71658503  1.50000000
C   729.17000000  21.17609717  1.50000000
C   729.17000000  23.63560932  1.50000000
C   729.17000000  26.09512147  1.50000000
C   730.59000000  1.50000000  1.50000000
C   730.59000000  3.95951215  1.50000000
C   730.59000000  6.41902429  1.50000000
C   730.59000000  8.87853644  1.50000000
C   730.59000000  11.33804859  1.50000000
C   730.59000000  13.79756073  1.50000000
C   730.59000000  16.25707288  1.50000000
C   730.59000000  18.71658503  1.50000000
C   730.59000000  21.17609717  1.50000000
C   730.59000000  23.63560932  1.50000000
C   730.59000000  26.09512147  1.50000000
C   731.30000000  2.72975607  1.50000000
C   731.30000000  5.18926822  1.50000000
C   731.30000000  7.64878037  1.50000000
C   731.30000000  10.10829251  1.50000000
C   731.30000000  12.56780466  1.50000000
C   731.30000000  15.02731681  1.50000000
C   731.30000000  17.48682895  1.50000000
C   731.30000000  19.94634110  1.50000000
C   731.30000000  22.40585325  1.50000000
C   731.30000000  24.86536539  1.50000000
C   732.72000000  2.72975607  1.50000000
C   732.72000000  5.18926822  1.50000000
C   732.72000000  7.64878037  1.50000000
C   732.72000000  10.10829251  1.50000000
C   732.72000000  12.56780466  1.50000000
C   732.72000000  15.02731681  1.50000000
C   732.72000000  17.48682895  1.50000000
C   732.72000000  19.94634110  1.50000000
C   732.72000000  22.40585325  1.50000000
C   732.72000000  24.86536539  1.50000000
C   733.43000000  1.50000000  1.50000000
C   733.43000000  3.95951215  1.50000000
C   733.43000000  6.41902429  1.50000000
C   733.43000000  8.87853644  1.50000000
C   733.43000000  11.33804859  1.50000000
C   733.43000000  13.79756073  1.50000000
C   733.43000000  16.25707288  1.50000000
C   733.43000000  18.71658503  1.50000000
C   733.43000000  21.17609717  1.50000000
C   733.43000000  23.63560932  1.50000000
C   733.43000000  26.09512147  1.50000000
C   734.85000000  1.50000000  1.50000000
C   734.85000000  3.95951215  1.50000000
C   734.85000000  6.41902429  1.50000000
C   734.85000000  8.87853644  1.50000000
C   734.85000000  11.33804859  1.50000000
C   734.85000000  13.79756073  1.50000000
C   734.85000000  16.25707288  1.50000000
C   734.85000000  18.71658503  1.50000000
C   734.85000000  21.17609717  1.50000000
C   734.85000000  23.63560932  1.50000000
C   734.85000000  26.09512147  1.50000000
C   735.56000000  2.72975607  1.50000000
C   735.56000000  5.18926822  1.50000000
C   735.56000000  7.64878037  1.50000000
C   735.56000000  10.10829251  1.50000000
C   735.56000000  12.56780466  1.50000000
C   735.56000000  15.02731681  1.50000000
C   735.56000000  17.48682895  1.50000000
C   735.56000000  19.94634110  1.50000000
C   735.56000000  22.40585325  1.50000000
C   735.56000000  24.86536539  1.50000000
C   736.98000000  2.72975607  1.50000000
C   736.98000000  5.18926822  1.50000000
C   736.98000000  7.64878037  1.50000000
C   736.98000000  10.10829251  1.50000000
C   736.98000000  12.56780466  1.50000000
C   736.98000000  15.02731681  1.50000000
C   736.98000000  17.48682895  1.50000000
C   736.98000000  19.94634110  1.50000000
C   736.98000000  22.40585325  1.50000000
C   736.98000000  24.86536539  1.50000000
C   737.69000000  1.50000000  1.50000000
C   737.69000000  3.95951215  1.50000000
C   737.69000000  6.41902429  1.50000000
C   737.69000000  8.87853644  1.50000000
C   737.69000000  11.33804859  1.50000000
C   737.69000000  13.79756073  1.50000000
C   737.69000000  16.25707288  1.50000000
C   737.69000000  18.71658503  1.50000000
C   737.69000000  21.17609717  1.50000000
C   737.69000000  23.63560932  1.50000000
C   737.69000000  26.09512147  1.50000000
C   739.11000000  1.50000000  1.50000000
C   739.11000000  3.95951215  1.50000000
C   739.11000000  6.41902429  1.50000000
C   739.11000000  8.87853644  1.50000000
C   739.11000000  11.33804859  1.50000000
C   739.11000000  13.79756073  1.50000000
C   739.11000000  16.25707288  1.50000000
C   739.11000000  18.71658503  1.50000000
C   739.11000000  21.17609717  1.50000000
C   739.11000000  23.63560932  1.50000000
C   739.11000000  26.09512147  1.50000000
C   739.82000000  2.72975607  1.50000000
C   739.82000000  5.18926822  1.50000000
C   739.82000000  7.64878037  1.50000000
C   739.82000000  10.10829251  1.50000000
C   739.82000000  12.56780466  1.50000000
C   739.82000000  15.02731681  1.50000000
C   739.82000000  17.48682895  1.50000000
C   739.82000000  19.94634110  1.50000000
C   739.82000000  22.40585325  1.50000000
C   739.82000000  24.86536539  1.50000000
C   741.24000000  2.72975607  1.50000000
C   741.24000000  5.18926822  1.50000000
C   741.24000000  7.64878037  1.50000000
C   741.24000000  10.10829251  1.50000000
C   741.24000000  12.56780466  1.50000000
C   741.24000000  15.02731681  1.50000000
C   741.24000000  17.48682895  1.50000000
C   741.24000000  19.94634110  1.50000000
C   741.24000000  22.40585325  1.50000000
C   741.24000000  24.86536539  1.50000000
C   741.95000000  1.50000000  1.50000000
C   741.95000000  3.95951215  1.50000000
C   741.95000000  6.41902429  1.50000000
C   741.95000000  8.87853644  1.50000000
C   741.95000000  11.33804859  1.50000000
C   741.95000000  13.79756073  1.50000000
C   741.95000000  16.25707288  1.50000000
C   741.95000000  18.71658503  1.50000000
C   741.95000000  21.17609717  1.50000000
C   741.95000000  23.63560932  1.50000000
C   741.95000000  26.09512147  1.50000000
C   743.37000000  1.50000000  1.50000000
C   743.37000000  3.95951215  1.50000000
C   743.37000000  6.41902429  1.50000000
C   743.37000000  8.87853644  1.50000000
C   743.37000000  11.33804859  1.50000000
C   743.37000000  13.79756073  1.50000000
C   743.37000000  16.25707288  1.50000000
C   743.37000000  18.71658503  1.50000000
C   743.37000000  21.17609717  1.50000000
C   743.37000000  23.63560932  1.50000000
C   743.37000000  26.09512147  1.50000000
C   744.08000000  2.72975607  1.50000000
C   744.08000000  5.18926822  1.50000000
C   744.08000000  7.64878037  1.50000000
C   744.08000000  10.10829251  1.50000000
C   744.08000000  12.56780466  1.50000000
C   744.08000000  15.02731681  1.50000000
C   744.08000000  17.48682895  1.50000000
C   744.08000000  19.94634110  1.50000000
C   744.08000000  22.40585325  1.50000000
C   744.08000000  24.86536539  1.50000000
C   745.50000000  2.72975607  1.50000000
C   745.50000000  5.18926822  1.50000000
C   745.50000000  7.64878037  1.50000000
C   745.50000000  10.10829251  1.50000000
C   745.50000000  12.56780466  1.50000000
C   745.50000000  15.02731681  1.50000000
C   745.50000000  17.48682895  1.50000000
C   745.50000000  19.94634110  1.50000000
C   745.50000000  22.40585325  1.50000000
C   745.50000000  24.86536539  1.50000000
C   746.21000000  1.50000000  1.50000000
C   746.21000000  3.95951215  1.50000000
C   746.21000000  6.41902429  1.50000000
C   746.21000000  8.87853644  1.50000000
C   746.21000000  11.33804859  1.50000000
C   746.21000000  13.79756073  1.50000000
C   746.21000000  16.25707288  1.50000000
C   746.21000000  18.71658503  1.50000000
C   746.21000000  21.17609717  1.50000000
C   746.21000000  23.63560932  1.50000000
C   746.21000000  26.09512147  1.50000000
C   747.63000000  1.50000000  1.50000000
C   747.63000000  3.95951215  1.50000000
C   747.63000000  6.41902429  1.50000000
C   747.63000000  8.87853644  1.50000000
C   747.63000000  11.33804859  1.50000000
C   747.63000000  13.79756073  1.50000000
C   747.63000000  16.25707288  1.50000000
C   747.63000000  18.71658503  1.50000000
C   747.63000000  21.17609717  1.50000000
C   747.63000000  23.63560932  1.50000000
C   747.63000000  26.09512147  1.50000000
C   748.34000000  2.72975607  1.50000000
C   748.34000000  5.18926822  1.50000000
C   748.34000000  7.64878037  1.50000000
C   748.34000000  10.10829251  1.50000000
C   748.34000000  12.56780466  1.50000000
C   748.34000000  15.02731681  1.50000000
C   748.34000000  17.48682895  1.50000000
C   748.34000000  19.94634110  1.50000000
C   748.34000000  22.40585325  1.50000000
C   748.34000000  24.86536539  1.50000000
C   749.76000000  2.72975607  1.50000000
C   749.76000000  5.18926822  1.50000000
C   749.76000000  7.64878037  1.50000000
C   749.76000000  10.10829251  1.50000000
C   749.76000000  12.56780466  1.50000000
C   749.76000000  15.02731681  1.50000000
C   749.76000000  17.48682895  1.50000000
C   749.76000000  19.94634110  1.50000000
C   749.76000000  22.40585325  1.50000000
C   749.76000000  24.86536539  1.50000000
C   750.47000000  1.50000000  1.50000000
C   750.47000000  3.95951215  1.50000000
C   750.47000000  6.41902429  1.50000000
C   750.47000000  8.87853644  1.50000000
C   750.47000000  11.33804859  1.50000000
C   750.47000000  13.79756073  1.50000000
C   750.47000000  16.25707288  1.50000000
C   750.47000000  18.71658503  1.50000000
C   750.47000000  21.17609717  1.50000000
C   750.47000000  23.63560932  1.50000000
C   750.47000000  26.09512147  1.50000000
C   751.89000000  1.50000000  1.50000000
C   751.89000000  3.95951215  1.50000000
C   751.89000000  6.41902429  1.50000000
C   751.89000000  8.87853644  1.50000000
C   751.89000000  11.33804859  1.50000000
C   751.89000000  13.79756073  1.50000000
C   751.89000000  16.25707288  1.50000000
C   751.89000000  18.71658503  1.50000000
C   751.89000000  21.17609717  1.50000000
C   751.89000000  23.63560932  1.50000000
C   751.89000000  26.09512147  1.50000000
C   752.60000000  2.72975607  1.50000000
C   752.60000000  5.18926822  1.50000000
C   752.60000000  7.64878037  1.50000000
C   752.60000000  10.10829251  1.50000000
C   752.60000000  12.56780466  1.50000000
C   752.60000000  15.02731681  1.50000000
C   752.60000000  17.48682895  1.50000000
C   752.60000000  19.94634110  1.50000000
C   752.60000000  22.40585325  1.50000000
C   752.60000000  24.86536539  1.50000000
C   754.02000000  2.72975607  1.50000000
C   754.02000000  5.18926822  1.50000000
C   754.02000000  7.64878037  1.50000000
C   754.02000000  10.10829251  1.50000000
C   754.02000000  12.56780466  1.50000000
C   754.02000000  15.02731681  1.50000000
C   754.02000000  17.48682895  1.50000000
C   754.02000000  19.94634110  1.50000000
C   754.02000000  22.40585325  1.50000000
C   754.02000000  24.86536539  1.50000000
C   754.73000000  1.50000000  1.50000000
C   754.73000000  3.95951215  1.50000000
C   754.73000000  6.41902429  1.50000000
C   754.73000000  8.87853644  1.50000000
C   754.73000000  11.33804859  1.50000000
C   754.73000000  13.79756073  1.50000000
C   754.73000000  16.25707288  1.50000000
C   754.73000000  18.71658503  1.50000000
C   754.73000000  21.17609717  1.50000000
C   754.73000000  23.63560932  1.50000000
C   754.73000000  26.09512147  1.50000000
C   756.15000000  1.50000000  1.50000000
C   756.15000000  3.95951215  1.50000000
C   756.15000000  6.41902429  1.50000000
C   756.15000000  8.87853644  1.50000000
C   756.15000000  11.33804859  1.50000000
C   756.15000000  13.79756073  1.50000000
C   756.15000000  16.25707288  1.50000000
C   756.15000000  18.71658503  1.50000000
C   756.15000000  21.17609717  1.50000000
C   756.15000000  23.63560932  1.50000000
C   756.15000000  26.09512147  1.50000000
C   756.86000000  2.72975607  1.50000000
C   756.86000000  5.18926822  1.50000000
C   756.86000000  7.64878037  1.50000000
C   756.86000000  10.10829251  1.50000000
C   756.86000000  12.56780466  1.50000000
C   756.86000000  15.02731681  1.50000000
C   756.86000000  17.48682895  1.50000000
C   756.86000000  19.94634110  1.50000000
C   756.86000000  22.40585325  1.50000000
C   756.86000000  24.86536539  1.50000000
C   758.28000000  2.72975607  1.50000000
C   758.28000000  5.18926822  1.50000000
C   758.28000000  7.64878037  1.50000000
C   758.28000000  10.10829251  1.50000000
C   758.28000000  12.56780466  1.50000000
C   758.28000000  15.02731681  1.50000000
C   758.28000000  17.48682895  1.50000000
C   758.28000000  19.94634110  1.50000000
C   758.28000000  22.40585325  1.50000000
C   758.28000000  24.86536539  1.50000000
C   758.99000000  1.50000000  1.50000000
C   758.99000000  3.95951215  1.50000000
C   758.99000000  6.41902429  1.50000000
C   758.99000000  8.87853644  1.50000000
C   758.99000000  11.33804859  1.50000000
C   758.99000000  13.79756073  1.50000000
C   758.99000000  16.25707288  1.50000000
C   758.99000000  18.71658503  1.50000000
C   758.99000000  21.17609717  1.50000000
C   758.99000000  23.63560932  1.50000000
C   758.99000000  26.09512147  1.50000000
C   760.41000000  1.50000000  1.50000000
C   760.41000000  3.95951215  1.50000000
C   760.41000000  6.41902429  1.50000000
C   760.41000000  8.87853644  1.50000000
C   760.41000000  11.33804859  1.50000000
C   760.41000000  13.79756073  1.50000000
C   760.41000000  16.25707288  1.50000000
C   760.41000000  18.71658503  1.50000000
C   760.41000000  21.17609717  1.50000000
C   760.41000000  23.63560932  1.50000000
C   760.41000000  26.09512147  1.50000000
C   761.12000000  2.72975607  1.50000000
C   761.12000000  5.18926822  1.50000000
C   761.12000000  7.64878037  1.50000000
C   761.12000000  10.10829251  1.50000000
C   761.12000000  12.56780466  1.50000000
C   761.12000000  15.02731681  1.50000000
C   761.12000000  17.48682895  1.50000000
C   761.12000000  19.94634110  1.50000000
C   761.12000000  22.40585325  1.50000000
C   761.12000000  24.86536539  1.50000000
C   762.54000000  2.72975607  1.50000000
C   762.54000000  5.18926822  1.50000000
C   762.54000000  7.64878037  1.50000000
C   762.54000000  10.10829251  1.50000000
C   762.54000000  12.56780466  1.50000000
C   762.54000000  15.02731681  1.50000000
C   762.54000000  17.48682895  1.50000000
C   762.54000000  19.94634110  1.50000000
C   762.54000000  22.40585325  1.50000000
C   762.54000000  24.86536539  1.50000000
C   763.25000000  1.50000000  1.50000000
C   763.25000000  3.95951215  1.50000000
C   763.25000000  6.41902429  1.50000000
C   763.25000000  8.87853644  1.50000000
C   763.25000000  11.33804859  1.50000000
C   763.25000000  13.79756073  1.50000000
C   763.25000000  16.25707288  1.50000000
C   763.25000000  18.71658503  1.50000000
C   763.25000000  21.17609717  1.50000000
C   763.25000000  23.63560932  1.50000000
C   763.25000000  26.09512147  1.50000000
C   764.67000000  1.50000000  1.50000000
C   764.67000000  3.95951215  1.50000000
C   764.67000000  6.41902429  1.50000000
C   764.67000000  8.87853644  1.50000000
C   764.67000000  11.33804859  1.50000000
C   764.67000000  13.79756073  1.50000000
C   764.67000000  16.25707288  1.50000000
C   764.67000000  18.71658503  1.50000000
C   764.67000000  21.17609717  1.50000000
C   764.67000000  23.63560932  1.50000000
C   764.67000000  26.09512147  1.50000000
C   765.38000000  2.72975607  1.50000000
C   765.38000000  5.18926822  1.50000000
C   765.38000000  7.64878037  1.50000000
C   765.38000000  10.10829251  1.50000000
C   765.38000000  12.56780466  1.50000000
C   765.38000000  15.02731681  1.50000000
C   765.38000000  17.48682895  1.50000000
C   765.38000000  19.94634110  1.50000000
C   765.38000000  22.40585325  1.50000000
C   765.38000000  24.86536539  1.50000000
C   766.80000000  2.72975607  1.50000000
C   766.80000000  5.18926822  1.50000000
C   766.80000000  7.64878037  1.50000000
C   766.80000000  10.10829251  1.50000000
C   766.80000000  12.56780466  1.50000000
C   766.80000000  15.02731681  1.50000000
C   766.80000000  17.48682895  1.50000000
C   766.80000000  19.94634110  1.50000000
C   766.80000000  22.40585325  1.50000000
C   766.80000000  24.86536539  1.50000000
C   767.51000000  1.50000000  1.50000000
C   767.51000000  3.95951215  1.50000000
C   767.51000000  6.41902429  1.50000000
C   767.51000000  8.87853644  1.50000000
C   767.51000000  11.33804859  1.50000000
C   767.51000000  13.79756073  1.50000000
C   767.51000000  16.25707288  1.50000000
C   767.51000000  18.71658503  1.50000000
C   767.51000000  21.17609717  1.50000000
C   767.51000000  23.63560932  1.50000000
C   767.51000000  26.09512147  1.50000000
C   768.93000000  1.50000000  1.50000000
C   768.93000000  3.95951215  1.50000000
C   768.93000000  6.41902429  1.50000000
C   768.93000000  8.87853644  1.50000000
C   768.93000000  11.33804859  1.50000000
C   768.93000000  13.79756073  1.50000000
C   768.93000000  16.25707288  1.50000000
C   768.93000000  18.71658503  1.50000000
C   768.93000000  21.17609717  1.50000000
C   768.93000000  23.63560932  1.50000000
C   768.93000000  26.09512147  1.50000000
C   769.64000000  2.72975607  1.50000000
C   769.64000000  5.18926822  1.50000000
C   769.64000000  7.64878037  1.50000000
C   769.64000000  10.10829251  1.50000000
C   769.64000000  12.56780466  1.50000000
C   769.64000000  15.02731681  1.50000000
C   769.64000000  17.48682895  1.50000000
C   769.64000000  19.94634110  1.50000000
C   769.64000000  22.40585325  1.50000000
C   769.64000000  24.86536539  1.50000000
C   771.06000000  2.72975607  1.50000000
C   771.06000000  5.18926822  1.50000000
C   771.06000000  7.64878037  1.50000000
C   771.06000000  10.10829251  1.50000000
C   771.06000000  12.56780466  1.50000000
C   771.06000000  15.02731681  1.50000000
C   771.06000000  17.48682895  1.50000000
C   771.06000000  19.94634110  1.50000000
C   771.06000000  22.40585325  1.50000000
C   771.06000000  24.86536539  1.50000000
C   771.77000000  1.50000000  1.50000000
C   771.77000000  3.95951215  1.50000000
C   771.77000000  6.41902429  1.50000000
C   771.77000000  8.87853644  1.50000000
C   771.77000000  11.33804859  1.50000000
C   771.77000000  13.79756073  1.50000000
C   771.77000000  16.25707288  1.50000000
C   771.77000000  18.71658503  1.50000000
C   771.77000000  21.17609717  1.50000000
C   771.77000000  23.63560932  1.50000000
C   771.77000000  26.09512147  1.50000000
C   773.19000000  1.50000000  1.50000000
C   773.19000000  3.95951215  1.50000000
C   773.19000000  6.41902429  1.50000000
C   773.19000000  8.87853644  1.50000000
C   773.19000000  11.33804859  1.50000000
C   773.19000000  13.79756073  1.50000000
C   773.19000000  16.25707288  1.50000000
C   773.19000000  18.71658503  1.50000000
C   773.19000000  21.17609717  1.50000000
C   773.19000000  23.63560932  1.50000000
C   773.19000000  26.09512147  1.50000000
C   773.90000000  2.72975607  1.50000000
C   773.90000000  5.18926822  1.50000000
C   773.90000000  7.64878037  1.50000000
C   773.90000000  10.10829251  1.50000000
C   773.90000000  12.56780466  1.50000000
C   773.90000000  15.02731681  1.50000000
C   773.90000000  17.48682895  1.50000000
C   773.90000000  19.94634110  1.50000000
C   773.90000000  22.40585325  1.50000000
C   773.90000000  24.86536539  1.50000000
C   775.32000000  2.72975607  1.50000000
C   775.32000000  5.18926822  1.50000000
C   775.32000000  7.64878037  1.50000000
C   775.32000000  10.10829251  1.50000000
C   775.32000000  12.56780466  1.50000000
C   775.32000000  15.02731681  1.50000000
C   775.32000000  17.48682895  1.50000000
C   775.32000000  19.94634110  1.50000000
C   775.32000000  22.40585325  1.50000000
C   775.32000000  24.86536539  1.50000000
C   776.03000000  1.50000000  1.50000000
C   776.03000000  3.95951215  1.50000000
C   776.03000000  6.41902429  1.50000000
C   776.03000000  8.87853644  1.50000000
C   776.03000000  11.33804859  1.50000000
C   776.03000000  13.79756073  1.50000000
C   776.03000000  16.25707288  1.50000000
C   776.03000000  18.71658503  1.50000000
C   776.03000000  21.17609717  1.50000000
C   776.03000000  23.63560932  1.50000000
C   776.03000000  26.09512147  1.50000000
C   777.45000000  1.50000000  1.50000000
C   777.45000000  3.95951215  1.50000000
C   777.45000000  6.41902429  1.50000000
C   777.45000000  8.87853644  1.50000000
C   777.45000000  11.33804859  1.50000000
C   777.45000000  13.79756073  1.50000000
C   777.45000000  16.25707288  1.50000000
C   777.45000000  18.71658503  1.50000000
C   777.45000000  21.17609717  1.50000000
C   777.45000000  23.63560932  1.50000000
C   777.45000000  26.09512147  1.50000000
C   778.16000000  2.72975607  1.50000000
C   778.16000000  5.18926822  1.50000000
C   778.16000000  7.64878037  1.50000000
C   778.16000000  10.10829251  1.50000000
C   778.16000000  12.56780466  1.50000000
C   778.16000000  15.02731681  1.50000000
C   778.16000000  17.48682895  1.50000000
C   778.16000000  19.94634110  1.50000000
C   778.16000000  22.40585325  1.50000000
C   778.16000000  24.86536539  1.50000000
C   779.58000000  2.72975607  1.50000000
C   779.58000000  5.18926822  1.50000000
C   779.58000000  7.64878037  1.50000000
C   779.58000000  10.10829251  1.50000000
C   779.58000000  12.56780466  1.50000000
C   779.58000000  15.02731681  1.50000000
C   779.58000000  17.48682895  1.50000000
C   779.58000000  19.94634110  1.50000000
C   779.58000000  22.40585325  1.50000000
C   779.58000000  24.86536539  1.50000000
C   780.29000000  1.50000000  1.50000000
C   780.29000000  3.95951215  1.50000000
C   780.29000000  6.41902429  1.50000000
C   780.29000000  8.87853644  1.50000000
C   780.29000000  11.33804859  1.50000000
C   780.29000000  13.79756073  1.50000000
C   780.29000000  16.25707288  1.50000000
C   780.29000000  18.71658503  1.50000000
C   780.29000000  21.17609717  1.50000000
C   780.29000000  23.63560932  1.50000000
C   780.29000000  26.09512147  1.50000000
C   781.71000000  1.50000000  1.50000000
C   781.71000000  3.95951215  1.50000000
C   781.71000000  6.41902429  1.50000000
C   781.71000000  8.87853644  1.50000000
C   781.71000000  11.33804859  1.50000000
C   781.71000000  13.79756073  1.50000000
C   781.71000000  16.25707288  1.50000000
C   781.71000000  18.71658503  1.50000000
C   781.71000000  21.17609717  1.50000000
C   781.71000000  23.63560932  1.50000000
C   781.71000000  26.09512147  1.50000000
C   782.42000000  2.72975607  1.50000000
C   782.42000000  5.18926822  1.50000000
C   782.42000000  7.64878037  1.50000000
C   782.42000000  10.10829251  1.50000000
C   782.42000000  12.56780466  1.50000000
C   782.42000000  15.02731681  1.50000000
C   782.42000000  17.48682895  1.50000000
C   782.42000000  19.94634110  1.50000000
C   782.42000000  22.40585325  1.50000000
C   782.42000000  24.86536539  1.50000000
C   783.84000000  2.72975607  1.50000000
C   783.84000000  5.18926822  1.50000000
C   783.84000000  7.64878037  1.50000000
C   783.84000000  10.10829251  1.50000000
C   783.84000000  12.56780466  1.50000000
C   783.84000000  15.02731681  1.50000000
C   783.84000000  17.48682895  1.50000000
C   783.84000000  19.94634110  1.50000000
C   783.84000000  22.40585325  1.50000000
C   783.84000000  24.86536539  1.50000000
C   784.55000000  1.50000000  1.50000000
C   784.55000000  3.95951215  1.50000000
C   784.55000000  6.41902429  1.50000000
C   784.55000000  8.87853644  1.50000000
C   784.55000000  11.33804859  1.50000000
C   784.55000000  13.79756073  1.50000000
C   784.55000000  16.25707288  1.50000000
C   784.55000000  18.71658503  1.50000000
C   784.55000000  21.17609717  1.50000000
C   784.55000000  23.63560932  1.50000000
C   784.55000000  26.09512147  1.50000000
C   785.97000000  1.50000000  1.50000000
C   785.97000000  3.95951215  1.50000000
C   785.97000000  6.41902429  1.50000000
C   785.97000000  8.87853644  1.50000000
C   785.97000000  11.33804859  1.50000000
C   785.97000000  13.79756073  1.50000000
C   785.97000000  16.25707288  1.50000000
C   785.97000000  18.71658503  1.50000000
C   785.97000000  21.17609717  1.50000000
C   785.97000000  23.63560932  1.50000000
C   785.97000000  26.09512147  1.50000000
C   786.68000000  2.72975607  1.50000000
C   786.68000000  5.18926822  1.50000000
C   786.68000000  7.64878037  1.50000000
C   786.68000000  10.10829251  1.50000000
C   786.68000000  12.56780466  1.50000000
C   786.68000000  15.02731681  1.50000000
C   786.68000000  17.48682895  1.50000000
C   786.68000000  19.94634110  1.50000000
C   786.68000000  22.40585325  1.50000000
C   786.68000000  24.86536539  1.50000000
C   788.10000000  2.72975607  1.50000000
C   788.10000000  5.18926822  1.50000000
C   788.10000000  7.64878037  1.50000000
C   788.10000000  10.10829251  1.50000000
C   788.10000000  12.56780466  1.50000000
C   788.10000000  15.02731681  1.50000000
C   788.10000000  17.48682895  1.50000000
C   788.10000000  19.94634110  1.50000000
C   788.10000000  22.40585325  1.50000000
C   788.10000000  24.86536539  1.50000000
C   788.81000000  1.50000000  1.50000000
C   788.81000000  3.95951215  1.50000000
C   788.81000000  6.41902429  1.50000000
C   788.81000000  8.87853644  1.50000000
C   788.81000000  11.33804859  1.50000000
C   788.81000000  13.79756073  1.50000000
C   788.81000000  16.25707288  1.50000000
C   788.81000000  18.71658503  1.50000000
C   788.81000000  21.17609717  1.50000000
C   788.81000000  23.63560932  1.50000000
C   788.81000000  26.09512147  1.50000000
C   790.23000000  1.50000000  1.50000000
C   790.23000000  3.95951215  1.50000000
C   790.23000000  6.41902429  1.50000000
C   790.23000000  8.87853644  1.50000000
C   790.23000000  11.33804859  1.50000000
C   790.23000000  13.79756073  1.50000000
C   790.23000000  16.25707288  1.50000000
C   790.23000000  18.71658503  1.50000000
C   790.23000000  21.17609717  1.50000000
C   790.23000000  23.63560932  1.50000000
C   790.23000000  26.09512147  1.50000000
C   790.94000000  2.72975607  1.50000000
C   790.94000000  5.18926822  1.50000000
C   790.94000000  7.64878037  1.50000000
C   790.94000000  10.10829251  1.50000000
C   790.94000000  12.56780466  1.50000000
C   790.94000000  15.02731681  1.50000000
C   790.94000000  17.48682895  1.50000000
C   790.94000000  19.94634110  1.50000000
C   790.94000000  22.40585325  1.50000000
C   790.94000000  24.86536539  1.50000000
C   792.36000000  2.72975607  1.50000000
C   792.36000000  5.18926822  1.50000000
C   792.36000000  7.64878037  1.50000000
C   792.36000000  10.10829251  1.50000000
C   792.36000000  12.56780466  1.50000000
C   792.36000000  15.02731681  1.50000000
C   792.36000000  17.48682895  1.50000000
C   792.36000000  19.94634110  1.50000000
C   792.36000000  22.40585325  1.50000000
C   792.36000000  24.86536539  1.50000000
C   793.07000000  1.50000000  1.50000000
C   793.07000000  3.95951215  1.50000000
C   793.07000000  6.41902429  1.50000000
C   793.07000000  8.87853644  1.50000000
C   793.07000000  11.33804859  1.50000000
C   793.07000000  13.79756073  1.50000000
C   793.07000000  16.25707288  1.50000000
C   793.07000000  18.71658503  1.50000000
C   793.07000000  21.17609717  1.50000000
C   793.07000000  23.63560932  1.50000000
C   793.07000000  26.09512147  1.50000000
C   794.49000000  1.50000000  1.50000000
C   794.49000000  3.95951215  1.50000000
C   794.49000000  6.41902429  1.50000000
C   794.49000000  8.87853644  1.50000000
C   794.49000000  11.33804859  1.50000000
C   794.49000000  13.79756073  1.50000000
C   794.49000000  16.25707288  1.50000000
C   794.49000000  18.71658503  1.50000000
C   794.49000000  21.17609717  1.50000000
C   794.49000000  23.63560932  1.50000000
C   794.49000000  26.09512147  1.50000000
C   795.20000000  2.72975607  1.50000000
C   795.20000000  5.18926822  1.50000000
C   795.20000000  7.64878037  1.50000000
C   795.20000000  10.10829251  1.50000000
C   795.20000000  12.56780466  1.50000000
C   795.20000000  15.02731681  1.50000000
C   795.20000000  17.48682895  1.50000000
C   795.20000000  19.94634110  1.50000000
C   795.20000000  22.40585325  1.50000000
C   795.20000000  24.86536539  1.50000000
C   796.62000000  2.72975607  1.50000000
C   796.62000000  5.18926822  1.50000000
C   796.62000000  7.64878037  1.50000000
C   796.62000000  10.10829251  1.50000000
C   796.62000000  12.56780466  1.50000000
C   796.62000000  15.02731681  1.50000000
C   796.62000000  17.48682895  1.50000000
C   796.62000000  19.94634110  1.50000000
C   796.62000000  22.40585325  1.50000000
C   796.62000000  24.86536539  1.50000000
C   797.33000000  1.50000000  1.50000000
C   797.33000000  3.95951215  1.50000000
C   797.33000000  6.41902429  1.50000000
C   797.33000000  8.87853644  1.50000000
C   797.33000000  11.33804859  1.50000000
C   797.33000000  13.79756073  1.50000000
C   797.33000000  16.25707288  1.50000000
C   797.33000000  18.71658503  1.50000000
C   797.33000000  21.17609717  1.50000000
C   797.33000000  23.63560932  1.50000000
C   797.33000000  26.09512147  1.50000000
C   798.75000000  1.50000000  1.50000000
C   798.75000000  3.95951215  1.50000000
C   798.75000000  6.41902429  1.50000000
C   798.75000000  8.87853644  1.50000000
C   798.75000000  11.33804859  1.50000000
C   798.75000000  13.79756073  1.50000000
C   798.75000000  16.25707288  1.50000000
C   798.75000000  18.71658503  1.50000000
C   798.75000000  21.17609717  1.50000000
C   798.75000000  23.63560932  1.50000000
C   798.75000000  26.09512147  1.50000000
C   799.46000000  2.72975607  1.50000000
C   799.46000000  5.18926822  1.50000000
C   799.46000000  7.64878037  1.50000000
C   799.46000000  10.10829251  1.50000000
C   799.46000000  12.56780466  1.50000000
C   799.46000000  15.02731681  1.50000000
C   799.46000000  17.48682895  1.50000000
C   799.46000000  19.94634110  1.50000000
C   799.46000000  22.40585325  1.50000000
C   799.46000000  24.86536539  1.50000000
C   800.88000000  2.72975607  1.50000000
C   800.88000000  5.18926822  1.50000000
C   800.88000000  7.64878037  1.50000000
C   800.88000000  10.10829251  1.50000000
C   800.88000000  12.56780466  1.50000000
C   800.88000000  15.02731681  1.50000000
C   800.88000000  17.48682895  1.50000000
C   800.88000000  19.94634110  1.50000000
C   800.88000000  22.40585325  1.50000000
C   800.88000000  24.86536539  1.50000000
C   801.59000000  1.50000000  1.50000000
C   801.59000000  3.95951215  1.50000000
C   801.59000000  6.41902429  1.50000000
C   801.59000000  8.87853644  1.50000000
C   801.59000000  11.33804859  1.50000000
C   801.59000000  13.79756073  1.50000000
C   801.59000000  16.25707288  1.50000000
C   801.59000000  18.71658503  1.50000000
C   801.59000000  21.17609717  1.50000000
C   801.59000000  23.63560932  1.50000000
C   801.59000000  26.09512147  1.50000000
C   803.01000000  1.50000000  1.50000000
C   803.01000000  3.95951215  1.50000000
C   803.01000000  6.41902429  1.50000000
C   803.01000000  8.87853644  1.50000000
C   803.01000000  11.33804859  1.50000000
C   803.01000000  13.79756073  1.50000000
C   803.01000000  16.25707288  1.50000000
C   803.01000000  18.71658503  1.50000000
C   803.01000000  21.17609717  1.50000000
C   803.01000000  23.63560932  1.50000000
C   803.01000000  26.09512147  1.50000000
C   803.72000000  2.72975607  1.50000000
C   803.72000000  5.18926822  1.50000000
C   803.72000000  7.64878037  1.50000000
C   803.72000000  10.10829251  1.50000000
C   803.72000000  12.56780466  1.50000000
C   803.72000000  15.02731681  1.50000000
C   803.72000000  17.48682895  1.50000000
C   803.72000000  19.94634110  1.50000000
C   803.72000000  22.40585325  1.50000000
C   803.72000000  24.86536539  1.50000000
C   805.14000000  2.72975607  1.50000000
C   805.14000000  5.18926822  1.50000000
C   805.14000000  7.64878037  1.50000000
C   805.14000000  10.10829251  1.50000000
C   805.14000000  12.56780466  1.50000000
C   805.14000000  15.02731681  1.50000000
C   805.14000000  17.48682895  1.50000000
C   805.14000000  19.94634110  1.50000000
C   805.14000000  22.40585325  1.50000000
C   805.14000000  24.86536539  1.50000000
C   805.85000000  1.50000000  1.50000000
C   805.85000000  3.95951215  1.50000000
C   805.85000000  6.41902429  1.50000000
C   805.85000000  8.87853644  1.50000000
C   805.85000000  11.33804859  1.50000000
C   805.85000000  13.79756073  1.50000000
C   805.85000000  16.25707288  1.50000000
C   805.85000000  18.71658503  1.50000000
C   805.85000000  21.17609717  1.50000000
C   805.85000000  23.63560932  1.50000000
C   805.85000000  26.09512147  1.50000000
C   807.27000000  1.50000000  1.50000000
C   807.27000000  3.95951215  1.50000000
C   807.27000000  6.41902429  1.50000000
C   807.27000000  8.87853644  1.50000000
C   807.27000000  11.33804859  1.50000000
C   807.27000000  13.79756073  1.50000000
C   807.27000000  16.25707288  1.50000000
C   807.27000000  18.71658503  1.50000000
C   807.27000000  21.17609717  1.50000000
C   807.27000000  23.63560932  1.50000000
C   807.27000000  26.09512147  1.50000000
C   807.98000000  2.72975607  1.50000000
C   807.98000000  5.18926822  1.50000000
C   807.98000000  7.64878037  1.50000000
C   807.98000000  10.10829251  1.50000000
C   807.98000000  12.56780466  1.50000000
C   807.98000000  15.02731681  1.50000000
C   807.98000000  17.48682895  1.50000000
C   807.98000000  19.94634110  1.50000000
C   807.98000000  22.40585325  1.50000000
C   807.98000000  24.86536539  1.50000000
C   809.40000000  2.72975607  1.50000000
C   809.40000000  5.18926822  1.50000000
C   809.40000000  7.64878037  1.50000000
C   809.40000000  10.10829251  1.50000000
C   809.40000000  12.56780466  1.50000000
C   809.40000000  15.02731681  1.50000000
C   809.40000000  17.48682895  1.50000000
C   809.40000000  19.94634110  1.50000000
C   809.40000000  22.40585325  1.50000000
C   809.40000000  24.86536539  1.50000000
C   810.11000000  1.50000000  1.50000000
C   810.11000000  3.95951215  1.50000000
C   810.11000000  6.41902429  1.50000000
C   810.11000000  8.87853644  1.50000000
C   810.11000000  11.33804859  1.50000000
C   810.11000000  13.79756073  1.50000000
C   810.11000000  16.25707288  1.50000000
C   810.11000000  18.71658503  1.50000000
C   810.11000000  21.17609717  1.50000000
C   810.11000000  23.63560932  1.50000000
C   810.11000000  26.09512147  1.50000000
C   811.53000000  1.50000000  1.50000000
C   811.53000000  3.95951215  1.50000000
C   811.53000000  6.41902429  1.50000000
C   811.53000000  8.87853644  1.50000000
C   811.53000000  11.33804859  1.50000000
C   811.53000000  13.79756073  1.50000000
C   811.53000000  16.25707288  1.50000000
C   811.53000000  18.71658503  1.50000000
C   811.53000000  21.17609717  1.50000000
C   811.53000000  23.63560932  1.50000000
C   811.53000000  26.09512147  1.50000000
C   812.24000000  2.72975607  1.50000000
C   812.24000000  5.18926822  1.50000000
C   812.24000000  7.64878037  1.50000000
C   812.24000000  10.10829251  1.50000000
C   812.24000000  12.56780466  1.50000000
C   812.24000000  15.02731681  1.50000000
C   812.24000000  17.48682895  1.50000000
C   812.24000000  19.94634110  1.50000000
C   812.24000000  22.40585325  1.50000000
C   812.24000000  24.86536539  1.50000000
C   813.66000000  2.72975607  1.50000000
C   813.66000000  5.18926822  1.50000000
C   813.66000000  7.64878037  1.50000000
C   813.66000000  10.10829251  1.50000000
C   813.66000000  12.56780466  1.50000000
C   813.66000000  15.02731681  1.50000000
C   813.66000000  17.48682895  1.50000000
C   813.66000000  19.94634110  1.50000000
C   813.66000000  22.40585325  1.50000000
C   813.66000000  24.86536539  1.50000000
C   814.37000000  1.50000000  1.50000000
C   814.37000000  3.95951215  1.50000000
C   814.37000000  6.41902429  1.50000000
C   814.37000000  8.87853644  1.50000000
C   814.37000000  11.33804859  1.50000000
C   814.37000000  13.79756073  1.50000000
C   814.37000000  16.25707288  1.50000000
C   814.37000000  18.71658503  1.50000000
C   814.37000000  21.17609717  1.50000000
C   814.37000000  23.63560932  1.50000000
C   814.37000000  26.09512147  1.50000000
C   815.79000000  1.50000000  1.50000000
C   815.79000000  3.95951215  1.50000000
C   815.79000000  6.41902429  1.50000000
C   815.79000000  8.87853644  1.50000000
C   815.79000000  11.33804859  1.50000000
C   815.79000000  13.79756073  1.50000000
C   815.79000000  16.25707288  1.50000000
C   815.79000000  18.71658503  1.50000000
C   815.79000000  21.17609717  1.50000000
C   815.79000000  23.63560932  1.50000000
C   815.79000000  26.09512147  1.50000000
C   816.50000000  2.72975607  1.50000000
C   816.50000000  5.18926822  1.50000000
C   816.50000000  7.64878037  1.50000000
C   816.50000000  10.10829251  1.50000000
C   816.50000000  12.56780466  1.50000000
C   816.50000000  15.02731681  1.50000000
C   816.50000000  17.48682895  1.50000000
C   816.50000000  19.94634110  1.50000000
C   816.50000000  22.40585325  1.50000000
C   816.50000000  24.86536539  1.50000000
C   817.92000000  2.72975607  1.50000000
C   817.92000000  5.18926822  1.50000000
C   817.92000000  7.64878037  1.50000000
C   817.92000000  10.10829251  1.50000000
C   817.92000000  12.56780466  1.50000000
C   817.92000000  15.02731681  1.50000000
C   817.92000000  17.48682895  1.50000000
C   817.92000000  19.94634110  1.50000000
C   817.92000000  22.40585325  1.50000000
C   817.92000000  24.86536539  1.50000000
C   818.63000000  1.50000000  1.50000000
C   818.63000000  3.95951215  1.50000000
C   818.63000000  6.41902429  1.50000000
C   818.63000000  8.87853644  1.50000000
C   818.63000000  11.33804859  1.50000000
C   818.63000000  13.79756073  1.50000000
C   818.63000000  16.25707288  1.50000000
C   818.63000000  18.71658503  1.50000000
C   818.63000000  21.17609717  1.50000000
C   818.63000000  23.63560932  1.50000000
C   818.63000000  26.09512147  1.50000000
C   820.05000000  1.50000000  1.50000000
C   820.05000000  3.95951215  1.50000000
C   820.05000000  6.41902429  1.50000000
C   820.05000000  8.87853644  1.50000000
C   820.05000000  11.33804859  1.50000000
C   820.05000000  13.79756073  1.50000000
C   820.05000000  16.25707288  1.50000000
C   820.05000000  18.71658503  1.50000000
C   820.05000000  21.17609717  1.50000000
C   820.05000000  23.63560932  1.50000000
C   820.05000000  26.09512147  1.50000000
C   820.76000000  2.72975607  1.50000000
C   820.76000000  5.18926822  1.50000000
C   820.76000000  7.64878037  1.50000000
C   820.76000000  10.10829251  1.50000000
C   820.76000000  12.56780466  1.50000000
C   820.76000000  15.02731681  1.50000000
C   820.76000000  17.48682895  1.50000000
C   820.76000000  19.94634110  1.50000000
C   820.76000000  22.40585325  1.50000000
C   820.76000000  24.86536539  1.50000000
C   822.18000000  2.72975607  1.50000000
C   822.18000000  5.18926822  1.50000000
C   822.18000000  7.64878037  1.50000000
C   822.18000000  10.10829251  1.50000000
C   822.18000000  12.56780466  1.50000000
C   822.18000000  15.02731681  1.50000000
C   822.18000000  17.48682895  1.50000000
C   822.18000000  19.94634110  1.50000000
C   822.18000000  22.40585325  1.50000000
C   822.18000000  24.86536539  1.50000000
C   822.89000000  1.50000000  1.50000000
C   822.89000000  3.95951215  1.50000000
C   822.89000000  6.41902429  1.50000000
C   822.89000000  8.87853644  1.50000000
C   822.89000000  11.33804859  1.50000000
C   822.89000000  13.79756073  1.50000000
C   822.89000000  16.25707288  1.50000000
C   822.89000000  18.71658503  1.50000000
C   822.89000000  21.17609717  1.50000000
C   822.89000000  23.63560932  1.50000000
C   822.89000000  26.09512147  1.50000000
C   824.31000000  1.50000000  1.50000000
C   824.31000000  3.95951215  1.50000000
C   824.31000000  6.41902429  1.50000000
C   824.31000000  8.87853644  1.50000000
C   824.31000000  11.33804859  1.50000000
C   824.31000000  13.79756073  1.50000000
C   824.31000000  16.25707288  1.50000000
C   824.31000000  18.71658503  1.50000000
C   824.31000000  21.17609717  1.50000000
C   824.31000000  23.63560932  1.50000000
C   824.31000000  26.09512147  1.50000000
C   825.02000000  2.72975607  1.50000000
C   825.02000000  5.18926822  1.50000000
C   825.02000000  7.64878037  1.50000000
C   825.02000000  10.10829251  1.50000000
C   825.02000000  12.56780466  1.50000000
C   825.02000000  15.02731681  1.50000000
C   825.02000000  17.48682895  1.50000000
C   825.02000000  19.94634110  1.50000000
C   825.02000000  22.40585325  1.50000000
C   825.02000000  24.86536539  1.50000000
C   826.44000000  2.72975607  1.50000000
C   826.44000000  5.18926822  1.50000000
C   826.44000000  7.64878037  1.50000000
C   826.44000000  10.10829251  1.50000000
C   826.44000000  12.56780466  1.50000000
C   826.44000000  15.02731681  1.50000000
C   826.44000000  17.48682895  1.50000000
C   826.44000000  19.94634110  1.50000000
C   826.44000000  22.40585325  1.50000000
C   826.44000000  24.86536539  1.50000000
C   827.15000000  1.50000000  1.50000000
C   827.15000000  3.95951215  1.50000000
C   827.15000000  6.41902429  1.50000000
C   827.15000000  8.87853644  1.50000000
C   827.15000000  11.33804859  1.50000000
C   827.15000000  13.79756073  1.50000000
C   827.15000000  16.25707288  1.50000000
C   827.15000000  18.71658503  1.50000000
C   827.15000000  21.17609717  1.50000000
C   827.15000000  23.63560932  1.50000000
C   827.15000000  26.09512147  1.50000000
C   828.57000000  1.50000000  1.50000000
C   828.57000000  3.95951215  1.50000000
C   828.57000000  6.41902429  1.50000000
C   828.57000000  8.87853644  1.50000000
C   828.57000000  11.33804859  1.50000000
C   828.57000000  13.79756073  1.50000000
C   828.57000000  16.25707288  1.50000000
C   828.57000000  18.71658503  1.50000000
C   828.57000000  21.17609717  1.50000000
C   828.57000000  23.63560932  1.50000000
C   828.57000000  26.09512147  1.50000000
C   829.28000000  2.72975607  1.50000000
C   829.28000000  5.18926822  1.50000000
C   829.28000000  7.64878037  1.50000000
C   829.28000000  10.10829251  1.50000000
C   829.28000000  12.56780466  1.50000000
C   829.28000000  15.02731681  1.50000000
C   829.28000000  17.48682895  1.50000000
C   829.28000000  19.94634110  1.50000000
C   829.28000000  22.40585325  1.50000000
C   829.28000000  24.86536539  1.50000000
C   830.70000000  2.72975607  1.50000000
C   830.70000000  5.18926822  1.50000000
C   830.70000000  7.64878037  1.50000000
C   830.70000000  10.10829251  1.50000000
C   830.70000000  12.56780466  1.50000000
C   830.70000000  15.02731681  1.50000000
C   830.70000000  17.48682895  1.50000000
C   830.70000000  19.94634110  1.50000000
C   830.70000000  22.40585325  1.50000000
C   830.70000000  24.86536539  1.50000000
C   831.41000000  1.50000000  1.50000000
C   831.41000000  3.95951215  1.50000000
C   831.41000000  6.41902429  1.50000000
C   831.41000000  8.87853644  1.50000000
C   831.41000000  11.33804859  1.50000000
C   831.41000000  13.79756073  1.50000000
C   831.41000000  16.25707288  1.50000000
C   831.41000000  18.71658503  1.50000000
C   831.41000000  21.17609717  1.50000000
C   831.41000000  23.63560932  1.50000000
C   831.41000000  26.09512147  1.50000000
C   832.83000000  1.50000000  1.50000000
C   832.83000000  3.95951215  1.50000000
C   832.83000000  6.41902429  1.50000000
C   832.83000000  8.87853644  1.50000000
C   832.83000000  11.33804859  1.50000000
C   832.83000000  13.79756073  1.50000000
C   832.83000000  16.25707288  1.50000000
C   832.83000000  18.71658503  1.50000000
C   832.83000000  21.17609717  1.50000000
C   832.83000000  23.63560932  1.50000000
C   832.83000000  26.09512147  1.50000000
C   833.54000000  2.72975607  1.50000000
C   833.54000000  5.18926822  1.50000000
C   833.54000000  7.64878037  1.50000000
C   833.54000000  10.10829251  1.50000000
C   833.54000000  12.56780466  1.50000000
C   833.54000000  15.02731681  1.50000000
C   833.54000000  17.48682895  1.50000000
C   833.54000000  19.94634110  1.50000000
C   833.54000000  22.40585325  1.50000000
C   833.54000000  24.86536539  1.50000000
C   834.96000000  2.72975607  1.50000000
C   834.96000000  5.18926822  1.50000000
C   834.96000000  7.64878037  1.50000000
C   834.96000000  10.10829251  1.50000000
C   834.96000000  12.56780466  1.50000000
C   834.96000000  15.02731681  1.50000000
C   834.96000000  17.48682895  1.50000000
C   834.96000000  19.94634110  1.50000000
C   834.96000000  22.40585325  1.50000000
C   834.96000000  24.86536539  1.50000000
C   835.67000000  1.50000000  1.50000000
C   835.67000000  3.95951215  1.50000000
C   835.67000000  6.41902429  1.50000000
C   835.67000000  8.87853644  1.50000000
C   835.67000000  11.33804859  1.50000000
C   835.67000000  13.79756073  1.50000000
C   835.67000000  16.25707288  1.50000000
C   835.67000000  18.71658503  1.50000000
C   835.67000000  21.17609717  1.50000000
C   835.67000000  23.63560932  1.50000000
C   835.67000000  26.09512147  1.50000000
C   837.09000000  1.50000000  1.50000000
C   837.09000000  3.95951215  1.50000000
C   837.09000000  6.41902429  1.50000000
C   837.09000000  8.87853644  1.50000000
C   837.09000000  11.33804859  1.50000000
C   837.09000000  13.79756073  1.50000000
C   837.09000000  16.25707288  1.50000000
C   837.09000000  18.71658503  1.50000000
C   837.09000000  21.17609717  1.50000000
C   837.09000000  23.63560932  1.50000000
C   837.09000000  26.09512147  1.50000000
C   837.80000000  2.72975607  1.50000000
C   837.80000000  5.18926822  1.50000000
C   837.80000000  7.64878037  1.50000000
C   837.80000000  10.10829251  1.50000000
C   837.80000000  12.56780466  1.50000000
C   837.80000000  15.02731681  1.50000000
C   837.80000000  17.48682895  1.50000000
C   837.80000000  19.94634110  1.50000000
C   837.80000000  22.40585325  1.50000000
C   837.80000000  24.86536539  1.50000000
C   839.22000000  2.72975607  1.50000000
C   839.22000000  5.18926822  1.50000000
C   839.22000000  7.64878037  1.50000000
C   839.22000000  10.10829251  1.50000000
C   839.22000000  12.56780466  1.50000000
C   839.22000000  15.02731681  1.50000000
C   839.22000000  17.48682895  1.50000000
C   839.22000000  19.94634110  1.50000000
C   839.22000000  22.40585325  1.50000000
C   839.22000000  24.86536539  1.50000000
C   839.93000000  1.50000000  1.50000000
C   839.93000000  3.95951215  1.50000000
C   839.93000000  6.41902429  1.50000000
C   839.93000000  8.87853644  1.50000000
C   839.93000000  11.33804859  1.50000000
C   839.93000000  13.79756073  1.50000000
C   839.93000000  16.25707288  1.50000000
C   839.93000000  18.71658503  1.50000000
C   839.93000000  21.17609717  1.50000000
C   839.93000000  23.63560932  1.50000000
C   839.93000000  26.09512147  1.50000000
C   841.35000000  1.50000000  1.50000000
C   841.35000000  3.95951215  1.50000000
C   841.35000000  6.41902429  1.50000000
C   841.35000000  8.87853644  1.50000000
C   841.35000000  11.33804859  1.50000000
C   841.35000000  13.79756073  1.50000000
C   841.35000000  16.25707288  1.50000000
C   841.35000000  18.71658503  1.50000000
C   841.35000000  21.17609717  1.50000000
C   841.35000000  23.63560932  1.50000000
C   841.35000000  26.09512147  1.50000000
C   842.06000000  2.72975607  1.50000000
C   842.06000000  5.18926822  1.50000000
C   842.06000000  7.64878037  1.50000000
C   842.06000000  10.10829251  1.50000000
C   842.06000000  12.56780466  1.50000000
C   842.06000000  15.02731681  1.50000000
C   842.06000000  17.48682895  1.50000000
C   842.06000000  19.94634110  1.50000000
C   842.06000000  22.40585325  1.50000000
C   842.06000000  24.86536539  1.50000000
C   843.48000000  2.72975607  1.50000000
C   843.48000000  5.18926822  1.50000000
C   843.48000000  7.64878037  1.50000000
C   843.48000000  10.10829251  1.50000000
C   843.48000000  12.56780466  1.50000000
C   843.48000000  15.02731681  1.50000000
C   843.48000000  17.48682895  1.50000000
C   843.48000000  19.94634110  1.50000000
C   843.48000000  22.40585325  1.50000000
C   843.48000000  24.86536539  1.50000000
C   844.19000000  1.50000000  1.50000000
C   844.19000000  3.95951215  1.50000000
C   844.19000000  6.41902429  1.50000000
C   844.19000000  8.87853644  1.50000000
C   844.19000000  11.33804859  1.50000000
C   844.19000000  13.79756073  1.50000000
C   844.19000000  16.25707288  1.50000000
C   844.19000000  18.71658503  1.50000000
C   844.19000000  21.17609717  1.50000000
C   844.19000000  23.63560932  1.50000000
C   844.19000000  26.09512147  1.50000000
C   845.61000000  1.50000000  1.50000000
C   845.61000000  3.95951215  1.50000000
C   845.61000000  6.41902429  1.50000000
C   845.61000000  8.87853644  1.50000000
C   845.61000000  11.33804859  1.50000000
C   845.61000000  13.79756073  1.50000000
C   845.61000000  16.25707288  1.50000000
C   845.61000000  18.71658503  1.50000000
C   845.61000000  21.17609717  1.50000000
C   845.61000000  23.63560932  1.50000000
C   845.61000000  26.09512147  1.50000000
C   846.32000000  2.72975607  1.50000000
C   846.32000000  5.18926822  1.50000000
C   846.32000000  7.64878037  1.50000000
C   846.32000000  10.10829251  1.50000000
C   846.32000000  12.56780466  1.50000000
C   846.32000000  15.02731681  1.50000000
C   846.32000000  17.48682895  1.50000000
C   846.32000000  19.94634110  1.50000000
C   846.32000000  22.40585325  1.50000000
C   846.32000000  24.86536539  1.50000000
C   847.74000000  2.72975607  1.50000000
C   847.74000000  5.18926822  1.50000000
C   847.74000000  7.64878037  1.50000000
C   847.74000000  10.10829251  1.50000000
C   847.74000000  12.56780466  1.50000000
C   847.74000000  15.02731681  1.50000000
C   847.74000000  17.48682895  1.50000000
C   847.74000000  19.94634110  1.50000000
C   847.74000000  22.40585325  1.50000000
C   847.74000000  24.86536539  1.50000000
C   848.45000000  1.50000000  1.50000000
C   848.45000000  3.95951215  1.50000000
C   848.45000000  6.41902429  1.50000000
C   848.45000000  8.87853644  1.50000000
C   848.45000000  11.33804859  1.50000000
C   848.45000000  13.79756073  1.50000000
C   848.45000000  16.25707288  1.50000000
C   848.45000000  18.71658503  1.50000000
C   848.45000000  21.17609717  1.50000000
C   848.45000000  23.63560932  1.50000000
C   848.45000000  26.09512147  1.50000000
C   849.87000000  1.50000000  1.50000000
C   849.87000000  3.95951215  1.50000000
C   849.87000000  6.41902429  1.50000000
C   849.87000000  8.87853644  1.50000000
C   849.87000000  11.33804859  1.50000000
C   849.87000000  13.79756073  1.50000000
C   849.87000000  16.25707288  1.50000000
C   849.87000000  18.71658503  1.50000000
C   849.87000000  21.17609717  1.50000000
C   849.87000000  23.63560932  1.50000000
C   849.87000000  26.09512147  1.50000000
C   850.58000000  2.72975607  1.50000000
C   850.58000000  5.18926822  1.50000000
C   850.58000000  7.64878037  1.50000000
C   850.58000000  10.10829251  1.50000000
C   850.58000000  12.56780466  1.50000000
C   850.58000000  15.02731681  1.50000000
C   850.58000000  17.48682895  1.50000000
C   850.58000000  19.94634110  1.50000000
C   850.58000000  22.40585325  1.50000000
C   850.58000000  24.86536539  1.50000000
C   852.00000000  2.72975607  1.50000000
C   852.00000000  5.18926822  1.50000000
C   852.00000000  7.64878037  1.50000000
C   852.00000000  10.10829251  1.50000000
C   852.00000000  12.56780466  1.50000000
C   852.00000000  15.02731681  1.50000000
C   852.00000000  17.48682895  1.50000000
C   852.00000000  19.94634110  1.50000000
C   852.00000000  22.40585325  1.50000000
C   852.00000000  24.86536539  1.50000000
C   852.71000000  1.50000000  1.50000000
C   852.71000000  3.95951215  1.50000000
C   852.71000000  6.41902429  1.50000000
C   852.71000000  8.87853644  1.50000000
C   852.71000000  11.33804859  1.50000000
C   852.71000000  13.79756073  1.50000000
C   852.71000000  16.25707288  1.50000000
C   852.71000000  18.71658503  1.50000000
C   852.71000000  21.17609717  1.50000000
C   852.71000000  23.63560932  1.50000000
C   852.71000000  26.09512147  1.50000000
C   854.13000000  1.50000000  1.50000000
C   854.13000000  3.95951215  1.50000000
C   854.13000000  6.41902429  1.50000000
C   854.13000000  8.87853644  1.50000000
C   854.13000000  11.33804859  1.50000000
C   854.13000000  13.79756073  1.50000000
C   854.13000000  16.25707288  1.50000000
C   854.13000000  18.71658503  1.50000000
C   854.13000000  21.17609717  1.50000000
C   854.13000000  23.63560932  1.50000000
C   854.13000000  26.09512147  1.50000000
C   854.84000000  2.72975607  1.50000000
C   854.84000000  5.18926822  1.50000000
C   854.84000000  7.64878037  1.50000000
C   854.84000000  10.10829251  1.50000000
C   854.84000000  12.56780466  1.50000000
C   854.84000000  15.02731681  1.50000000
C   854.84000000  17.48682895  1.50000000
C   854.84000000  19.94634110  1.50000000
C   854.84000000  22.40585325  1.50000000
C   854.84000000  24.86536539  1.50000000
C   856.26000000  2.72975607  1.50000000
C   856.26000000  5.18926822  1.50000000
C   856.26000000  7.64878037  1.50000000
C   856.26000000  10.10829251  1.50000000
C   856.26000000  12.56780466  1.50000000
C   856.26000000  15.02731681  1.50000000
C   856.26000000  17.48682895  1.50000000
C   856.26000000  19.94634110  1.50000000
C   856.26000000  22.40585325  1.50000000
C   856.26000000  24.86536539  1.50000000
C   856.97000000  1.50000000  1.50000000
C   856.97000000  3.95951215  1.50000000
C   856.97000000  6.41902429  1.50000000
C   856.97000000  8.87853644  1.50000000
C   856.97000000  11.33804859  1.50000000
C   856.97000000  13.79756073  1.50000000
C   856.97000000  16.25707288  1.50000000
C   856.97000000  18.71658503  1.50000000
C   856.97000000  21.17609717  1.50000000
C   856.97000000  23.63560932  1.50000000
C   856.97000000  26.09512147  1.50000000
C   858.39000000  1.50000000  1.50000000
C   858.39000000  3.95951215  1.50000000
C   858.39000000  6.41902429  1.50000000
C   858.39000000  8.87853644  1.50000000
C   858.39000000  11.33804859  1.50000000
C   858.39000000  13.79756073  1.50000000
C   858.39000000  16.25707288  1.50000000
C   858.39000000  18.71658503  1.50000000
C   858.39000000  21.17609717  1.50000000
C   858.39000000  23.63560932  1.50000000
C   858.39000000  26.09512147  1.50000000
C   859.10000000  2.72975607  1.50000000
C   859.10000000  5.18926822  1.50000000
C   859.10000000  7.64878037  1.50000000
C   859.10000000  10.10829251  1.50000000
C   859.10000000  12.56780466  1.50000000
C   859.10000000  15.02731681  1.50000000
C   859.10000000  17.48682895  1.50000000
C   859.10000000  19.94634110  1.50000000
C   859.10000000  22.40585325  1.50000000
C   859.10000000  24.86536539  1.50000000
C   860.52000000  2.72975607  1.50000000
C   860.52000000  5.18926822  1.50000000
C   860.52000000  7.64878037  1.50000000
C   860.52000000  10.10829251  1.50000000
C   860.52000000  12.56780466  1.50000000
C   860.52000000  15.02731681  1.50000000
C   860.52000000  17.48682895  1.50000000
C   860.52000000  19.94634110  1.50000000
C   860.52000000  22.40585325  1.50000000
C   860.52000000  24.86536539  1.50000000
C   861.23000000  1.50000000  1.50000000
C   861.23000000  3.95951215  1.50000000
C   861.23000000  6.41902429  1.50000000
C   861.23000000  8.87853644  1.50000000
C   861.23000000  11.33804859  1.50000000
C   861.23000000  13.79756073  1.50000000
C   861.23000000  16.25707288  1.50000000
C   861.23000000  18.71658503  1.50000000
C   861.23000000  21.17609717  1.50000000
C   861.23000000  23.63560932  1.50000000
C   861.23000000  26.09512147  1.50000000
C   862.65000000  1.50000000  1.50000000
C   862.65000000  3.95951215  1.50000000
C   862.65000000  6.41902429  1.50000000
C   862.65000000  8.87853644  1.50000000
C   862.65000000  11.33804859  1.50000000
C   862.65000000  13.79756073  1.50000000
C   862.65000000  16.25707288  1.50000000
C   862.65000000  18.71658503  1.50000000
C   862.65000000  21.17609717  1.50000000
C   862.65000000  23.63560932  1.50000000
C   862.65000000  26.09512147  1.50000000
C   863.36000000  2.72975607  1.50000000
C   863.36000000  5.18926822  1.50000000
C   863.36000000  7.64878037  1.50000000
C   863.36000000  10.10829251  1.50000000
C   863.36000000  12.56780466  1.50000000
C   863.36000000  15.02731681  1.50000000
C   863.36000000  17.48682895  1.50000000
C   863.36000000  19.94634110  1.50000000
C   863.36000000  22.40585325  1.50000000
C   863.36000000  24.86536539  1.50000000
C   864.78000000  2.72975607  1.50000000
C   864.78000000  5.18926822  1.50000000
C   864.78000000  7.64878037  1.50000000
C   864.78000000  10.10829251  1.50000000
C   864.78000000  12.56780466  1.50000000
C   864.78000000  15.02731681  1.50000000
C   864.78000000  17.48682895  1.50000000
C   864.78000000  19.94634110  1.50000000
C   864.78000000  22.40585325  1.50000000
C   864.78000000  24.86536539  1.50000000
C   865.49000000  1.50000000  1.50000000
C   865.49000000  3.95951215  1.50000000
C   865.49000000  6.41902429  1.50000000
C   865.49000000  8.87853644  1.50000000
C   865.49000000  11.33804859  1.50000000
C   865.49000000  13.79756073  1.50000000
C   865.49000000  16.25707288  1.50000000
C   865.49000000  18.71658503  1.50000000
C   865.49000000  21.17609717  1.50000000
C   865.49000000  23.63560932  1.50000000
C   865.49000000  26.09512147  1.50000000
C   866.91000000  1.50000000  1.50000000
C   866.91000000  3.95951215  1.50000000
C   866.91000000  6.41902429  1.50000000
C   866.91000000  8.87853644  1.50000000
C   866.91000000  11.33804859  1.50000000
C   866.91000000  13.79756073  1.50000000
C   866.91000000  16.25707288  1.50000000
C   866.91000000  18.71658503  1.50000000
C   866.91000000  21.17609717  1.50000000
C   866.91000000  23.63560932  1.50000000
C   866.91000000  26.09512147  1.50000000
C   867.62000000  2.72975607  1.50000000
C   867.62000000  5.18926822  1.50000000
C   867.62000000  7.64878037  1.50000000
C   867.62000000  10.10829251  1.50000000
C   867.62000000  12.56780466  1.50000000
C   867.62000000  15.02731681  1.50000000
C   867.62000000  17.48682895  1.50000000
C   867.62000000  19.94634110  1.50000000
C   867.62000000  22.40585325  1.50000000
C   867.62000000  24.86536539  1.50000000
C   869.04000000  2.72975607  1.50000000
C   869.04000000  5.18926822  1.50000000
C   869.04000000  7.64878037  1.50000000
C   869.04000000  10.10829251  1.50000000
C   869.04000000  12.56780466  1.50000000
C   869.04000000  15.02731681  1.50000000
C   869.04000000  17.48682895  1.50000000
C   869.04000000  19.94634110  1.50000000
C   869.04000000  22.40585325  1.50000000
C   869.04000000  24.86536539  1.50000000
C   869.75000000  1.50000000  1.50000000
C   869.75000000  3.95951215  1.50000000
C   869.75000000  6.41902429  1.50000000
C   869.75000000  8.87853644  1.50000000
C   869.75000000  11.33804859  1.50000000
C   869.75000000  13.79756073  1.50000000
C   869.75000000  16.25707288  1.50000000
C   869.75000000  18.71658503  1.50000000
C   869.75000000  21.17609717  1.50000000
C   869.75000000  23.63560932  1.50000000
C   869.75000000  26.09512147  1.50000000
C   871.17000000  1.50000000  1.50000000
C   871.17000000  3.95951215  1.50000000
C   871.17000000  6.41902429  1.50000000
C   871.17000000  8.87853644  1.50000000
C   871.17000000  11.33804859  1.50000000
C   871.17000000  13.79756073  1.50000000
C   871.17000000  16.25707288  1.50000000
C   871.17000000  18.71658503  1.50000000
C   871.17000000  21.17609717  1.50000000
C   871.17000000  23.63560932  1.50000000
C   871.17000000  26.09512147  1.50000000
C   871.88000000  2.72975607  1.50000000
C   871.88000000  5.18926822  1.50000000
C   871.88000000  7.64878037  1.50000000
C   871.88000000  10.10829251  1.50000000
C   871.88000000  12.56780466  1.50000000
C   871.88000000  15.02731681  1.50000000
C   871.88000000  17.48682895  1.50000000
C   871.88000000  19.94634110  1.50000000
C   871.88000000  22.40585325  1.50000000
C   871.88000000  24.86536539  1.50000000
C   873.30000000  2.72975607  1.50000000
C   873.30000000  5.18926822  1.50000000
C   873.30000000  7.64878037  1.50000000
C   873.30000000  10.10829251  1.50000000
C   873.30000000  12.56780466  1.50000000
C   873.30000000  15.02731681  1.50000000
C   873.30000000  17.48682895  1.50000000
C   873.30000000  19.94634110  1.50000000
C   873.30000000  22.40585325  1.50000000
C   873.30000000  24.86536539  1.50000000
C   874.01000000  1.50000000  1.50000000
C   874.01000000  3.95951215  1.50000000
C   874.01000000  6.41902429  1.50000000
C   874.01000000  8.87853644  1.50000000
C   874.01000000  11.33804859  1.50000000
C   874.01000000  13.79756073  1.50000000
C   874.01000000  16.25707288  1.50000000
C   874.01000000  18.71658503  1.50000000
C   874.01000000  21.17609717  1.50000000
C   874.01000000  23.63560932  1.50000000
C   874.01000000  26.09512147  1.50000000
C   875.43000000  1.50000000  1.50000000
C   875.43000000  3.95951215  1.50000000
C   875.43000000  6.41902429  1.50000000
C   875.43000000  8.87853644  1.50000000
C   875.43000000  11.33804859  1.50000000
C   875.43000000  13.79756073  1.50000000
C   875.43000000  16.25707288  1.50000000
C   875.43000000  18.71658503  1.50000000
C   875.43000000  21.17609717  1.50000000
C   875.43000000  23.63560932  1.50000000
C   875.43000000  26.09512147  1.50000000
C   876.14000000  2.72975607  1.50000000
C   876.14000000  5.18926822  1.50000000
C   876.14000000  7.64878037  1.50000000
C   876.14000000  10.10829251  1.50000000
C   876.14000000  12.56780466  1.50000000
C   876.14000000  15.02731681  1.50000000
C   876.14000000  17.48682895  1.50000000
C   876.14000000  19.94634110  1.50000000
C   876.14000000  22.40585325  1.50000000
C   876.14000000  24.86536539  1.50000000
C   877.56000000  2.72975607  1.50000000
C   877.56000000  5.18926822  1.50000000
C   877.56000000  7.64878037  1.50000000
C   877.56000000  10.10829251  1.50000000
C   877.56000000  12.56780466  1.50000000
C   877.56000000  15.02731681  1.50000000
C   877.56000000  17.48682895  1.50000000
C   877.56000000  19.94634110  1.50000000
C   877.56000000  22.40585325  1.50000000
C   877.56000000  24.86536539  1.50000000
C   878.27000000  1.50000000  1.50000000
C   878.27000000  3.95951215  1.50000000
C   878.27000000  6.41902429  1.50000000
C   878.27000000  8.87853644  1.50000000
C   878.27000000  11.33804859  1.50000000
C   878.27000000  13.79756073  1.50000000
C   878.27000000  16.25707288  1.50000000
C   878.27000000  18.71658503  1.50000000
C   878.27000000  21.17609717  1.50000000
C   878.27000000  23.63560932  1.50000000
C   878.27000000  26.09512147  1.50000000
C   879.69000000  1.50000000  1.50000000
C   879.69000000  3.95951215  1.50000000
C   879.69000000  6.41902429  1.50000000
C   879.69000000  8.87853644  1.50000000
C   879.69000000  11.33804859  1.50000000
C   879.69000000  13.79756073  1.50000000
C   879.69000000  16.25707288  1.50000000
C   879.69000000  18.71658503  1.50000000
C   879.69000000  21.17609717  1.50000000
C   879.69000000  23.63560932  1.50000000
C   879.69000000  26.09512147  1.50000000
C   880.40000000  2.72975607  1.50000000
C   880.40000000  5.18926822  1.50000000
C   880.40000000  7.64878037  1.50000000
C   880.40000000  10.10829251  1.50000000
C   880.40000000  12.56780466  1.50000000
C   880.40000000  15.02731681  1.50000000
C   880.40000000  17.48682895  1.50000000
C   880.40000000  19.94634110  1.50000000
C   880.40000000  22.40585325  1.50000000
C   880.40000000  24.86536539  1.50000000
C   881.82000000  2.72975607  1.50000000
C   881.82000000  5.18926822  1.50000000
C   881.82000000  7.64878037  1.50000000
C   881.82000000  10.10829251  1.50000000
C   881.82000000  12.56780466  1.50000000
C   881.82000000  15.02731681  1.50000000
C   881.82000000  17.48682895  1.50000000
C   881.82000000  19.94634110  1.50000000
C   881.82000000  22.40585325  1.50000000
C   881.82000000  24.86536539  1.50000000
C   882.53000000  1.50000000  1.50000000
C   882.53000000  3.95951215  1.50000000
C   882.53000000  6.41902429  1.50000000
C   882.53000000  8.87853644  1.50000000
C   882.53000000  11.33804859  1.50000000
C   882.53000000  13.79756073  1.50000000
C   882.53000000  16.25707288  1.50000000
C   882.53000000  18.71658503  1.50000000
C   882.53000000  21.17609717  1.50000000
C   882.53000000  23.63560932  1.50000000
C   882.53000000  26.09512147  1.50000000
C   883.95000000  1.50000000  1.50000000
C   883.95000000  3.95951215  1.50000000
C   883.95000000  6.41902429  1.50000000
C   883.95000000  8.87853644  1.50000000
C   883.95000000  11.33804859  1.50000000
C   883.95000000  13.79756073  1.50000000
C   883.95000000  16.25707288  1.50000000
C   883.95000000  18.71658503  1.50000000
C   883.95000000  21.17609717  1.50000000
C   883.95000000  23.63560932  1.50000000
C   883.95000000  26.09512147  1.50000000
C   884.66000000  2.72975607  1.50000000
C   884.66000000  5.18926822  1.50000000
C   884.66000000  7.64878037  1.50000000
C   884.66000000  10.10829251  1.50000000
C   884.66000000  12.56780466  1.50000000
C   884.66000000  15.02731681  1.50000000
C   884.66000000  17.48682895  1.50000000
C   884.66000000  19.94634110  1.50000000
C   884.66000000  22.40585325  1.50000000
C   884.66000000  24.86536539  1.50000000
C   886.08000000  2.72975607  1.50000000
C   886.08000000  5.18926822  1.50000000
C   886.08000000  7.64878037  1.50000000
C   886.08000000  10.10829251  1.50000000
C   886.08000000  12.56780466  1.50000000
C   886.08000000  15.02731681  1.50000000
C   886.08000000  17.48682895  1.50000000
C   886.08000000  19.94634110  1.50000000
C   886.08000000  22.40585325  1.50000000
C   886.08000000  24.86536539  1.50000000
C   886.79000000  1.50000000  1.50000000
C   886.79000000  3.95951215  1.50000000
C   886.79000000  6.41902429  1.50000000
C   886.79000000  8.87853644  1.50000000
C   886.79000000  11.33804859  1.50000000
C   886.79000000  13.79756073  1.50000000
C   886.79000000  16.25707288  1.50000000
C   886.79000000  18.71658503  1.50000000
C   886.79000000  21.17609717  1.50000000
C   886.79000000  23.63560932  1.50000000
C   886.79000000  26.09512147  1.50000000
C   888.21000000  1.50000000  1.50000000
C   888.21000000  3.95951215  1.50000000
C   888.21000000  6.41902429  1.50000000
C   888.21000000  8.87853644  1.50000000
C   888.21000000  11.33804859  1.50000000
C   888.21000000  13.79756073  1.50000000
C   888.21000000  16.25707288  1.50000000
C   888.21000000  18.71658503  1.50000000
C   888.21000000  21.17609717  1.50000000
C   888.21000000  23.63560932  1.50000000
C   888.21000000  26.09512147  1.50000000
C   888.92000000  2.72975607  1.50000000
C   888.92000000  5.18926822  1.50000000
C   888.92000000  7.64878037  1.50000000
C   888.92000000  10.10829251  1.50000000
C   888.92000000  12.56780466  1.50000000
C   888.92000000  15.02731681  1.50000000
C   888.92000000  17.48682895  1.50000000
C   888.92000000  19.94634110  1.50000000
C   888.92000000  22.40585325  1.50000000
C   888.92000000  24.86536539  1.50000000
C   890.34000000  2.72975607  1.50000000
C   890.34000000  5.18926822  1.50000000
C   890.34000000  7.64878037  1.50000000
C   890.34000000  10.10829251  1.50000000
C   890.34000000  12.56780466  1.50000000
C   890.34000000  15.02731681  1.50000000
C   890.34000000  17.48682895  1.50000000
C   890.34000000  19.94634110  1.50000000
C   890.34000000  22.40585325  1.50000000
C   890.34000000  24.86536539  1.50000000
C   891.05000000  1.50000000  1.50000000
C   891.05000000  3.95951215  1.50000000
C   891.05000000  6.41902429  1.50000000
C   891.05000000  8.87853644  1.50000000
C   891.05000000  11.33804859  1.50000000
C   891.05000000  13.79756073  1.50000000
C   891.05000000  16.25707288  1.50000000
C   891.05000000  18.71658503  1.50000000
C   891.05000000  21.17609717  1.50000000
C   891.05000000  23.63560932  1.50000000
C   891.05000000  26.09512147  1.50000000
C   892.47000000  1.50000000  1.50000000
C   892.47000000  3.95951215  1.50000000
C   892.47000000  6.41902429  1.50000000
C   892.47000000  8.87853644  1.50000000
C   892.47000000  11.33804859  1.50000000
C   892.47000000  13.79756073  1.50000000
C   892.47000000  16.25707288  1.50000000
C   892.47000000  18.71658503  1.50000000
C   892.47000000  21.17609717  1.50000000
C   892.47000000  23.63560932  1.50000000
C   892.47000000  26.09512147  1.50000000
C   893.18000000  2.72975607  1.50000000
C   893.18000000  5.18926822  1.50000000
C   893.18000000  7.64878037  1.50000000
C   893.18000000  10.10829251  1.50000000
C   893.18000000  12.56780466  1.50000000
C   893.18000000  15.02731681  1.50000000
C   893.18000000  17.48682895  1.50000000
C   893.18000000  19.94634110  1.50000000
C   893.18000000  22.40585325  1.50000000
C   893.18000000  24.86536539  1.50000000
C   894.60000000  2.72975607  1.50000000
C   894.60000000  5.18926822  1.50000000
C   894.60000000  7.64878037  1.50000000
C   894.60000000  10.10829251  1.50000000
C   894.60000000  12.56780466  1.50000000
C   894.60000000  15.02731681  1.50000000
C   894.60000000  17.48682895  1.50000000
C   894.60000000  19.94634110  1.50000000
C   894.60000000  22.40585325  1.50000000
C   894.60000000  24.86536539  1.50000000
C   895.31000000  1.50000000  1.50000000
C   895.31000000  3.95951215  1.50000000
C   895.31000000  6.41902429  1.50000000
C   895.31000000  8.87853644  1.50000000
C   895.31000000  11.33804859  1.50000000
C   895.31000000  13.79756073  1.50000000
C   895.31000000  16.25707288  1.50000000
C   895.31000000  18.71658503  1.50000000
C   895.31000000  21.17609717  1.50000000
C   895.31000000  23.63560932  1.50000000
C   895.31000000  26.09512147  1.50000000
C   896.73000000  1.50000000  1.50000000
C   896.73000000  3.95951215  1.50000000
C   896.73000000  6.41902429  1.50000000
C   896.73000000  8.87853644  1.50000000
C   896.73000000  11.33804859  1.50000000
C   896.73000000  13.79756073  1.50000000
C   896.73000000  16.25707288  1.50000000
C   896.73000000  18.71658503  1.50000000
C   896.73000000  21.17609717  1.50000000
C   896.73000000  23.63560932  1.50000000
C   896.73000000  26.09512147  1.50000000
C   897.44000000  2.72975607  1.50000000
C   897.44000000  5.18926822  1.50000000
C   897.44000000  7.64878037  1.50000000
C   897.44000000  10.10829251  1.50000000
C   897.44000000  12.56780466  1.50000000
C   897.44000000  15.02731681  1.50000000
C   897.44000000  17.48682895  1.50000000
C   897.44000000  19.94634110  1.50000000
C   897.44000000  22.40585325  1.50000000
C   897.44000000  24.86536539  1.50000000
C   898.86000000  2.72975607  1.50000000
C   898.86000000  5.18926822  1.50000000
C   898.86000000  7.64878037  1.50000000
C   898.86000000  10.10829251  1.50000000
C   898.86000000  12.56780466  1.50000000
C   898.86000000  15.02731681  1.50000000
C   898.86000000  17.48682895  1.50000000
C   898.86000000  19.94634110  1.50000000
C   898.86000000  22.40585325  1.50000000
C   898.86000000  24.86536539  1.50000000
C   899.57000000  1.50000000  1.50000000
C   899.57000000  3.95951215  1.50000000
C   899.57000000  6.41902429  1.50000000
C   899.57000000  8.87853644  1.50000000
C   899.57000000  11.33804859  1.50000000
C   899.57000000  13.79756073  1.50000000
C   899.57000000  16.25707288  1.50000000
C   899.57000000  18.71658503  1.50000000
C   899.57000000  21.17609717  1.50000000
C   899.57000000  23.63560932  1.50000000
C   899.57000000  26.09512147  1.50000000
C   900.99000000  1.50000000  1.50000000
C   900.99000000  3.95951215  1.50000000
C   900.99000000  6.41902429  1.50000000
C   900.99000000  8.87853644  1.50000000
C   900.99000000  11.33804859  1.50000000
C   900.99000000  13.79756073  1.50000000
C   900.99000000  16.25707288  1.50000000
C   900.99000000  18.71658503  1.50000000
C   900.99000000  21.17609717  1.50000000
C   900.99000000  23.63560932  1.50000000
C   900.99000000  26.09512147  1.50000000
C   901.70000000  2.72975607  1.50000000
C   901.70000000  5.18926822  1.50000000
C   901.70000000  7.64878037  1.50000000
C   901.70000000  10.10829251  1.50000000
C   901.70000000  12.56780466  1.50000000
C   901.70000000  15.02731681  1.50000000
C   901.70000000  17.48682895  1.50000000
C   901.70000000  19.94634110  1.50000000
C   901.70000000  22.40585325  1.50000000
C   901.70000000  24.86536539  1.50000000
C   903.12000000  2.72975607  1.50000000
C   903.12000000  5.18926822  1.50000000
C   903.12000000  7.64878037  1.50000000
C   903.12000000  10.10829251  1.50000000
C   903.12000000  12.56780466  1.50000000
C   903.12000000  15.02731681  1.50000000
C   903.12000000  17.48682895  1.50000000
C   903.12000000  19.94634110  1.50000000
C   903.12000000  22.40585325  1.50000000
C   903.12000000  24.86536539  1.50000000
C   903.83000000  1.50000000  1.50000000
C   903.83000000  3.95951215  1.50000000
C   903.83000000  6.41902429  1.50000000
C   903.83000000  8.87853644  1.50000000
C   903.83000000  11.33804859  1.50000000
C   903.83000000  13.79756073  1.50000000
C   903.83000000  16.25707288  1.50000000
C   903.83000000  18.71658503  1.50000000
C   903.83000000  21.17609717  1.50000000
C   903.83000000  23.63560932  1.50000000
C   903.83000000  26.09512147  1.50000000
C   905.25000000  1.50000000  1.50000000
C   905.25000000  3.95951215  1.50000000
C   905.25000000  6.41902429  1.50000000
C   905.25000000  8.87853644  1.50000000
C   905.25000000  11.33804859  1.50000000
C   905.25000000  13.79756073  1.50000000
C   905.25000000  16.25707288  1.50000000
C   905.25000000  18.71658503  1.50000000
C   905.25000000  21.17609717  1.50000000
C   905.25000000  23.63560932  1.50000000
C   905.25000000  26.09512147  1.50000000
C   905.96000000  2.72975607  1.50000000
C   905.96000000  5.18926822  1.50000000
C   905.96000000  7.64878037  1.50000000
C   905.96000000  10.10829251  1.50000000
C   905.96000000  12.56780466  1.50000000
C   905.96000000  15.02731681  1.50000000
C   905.96000000  17.48682895  1.50000000
C   905.96000000  19.94634110  1.50000000
C   905.96000000  22.40585325  1.50000000
C   905.96000000  24.86536539  1.50000000
C   907.38000000  2.72975607  1.50000000
C   907.38000000  5.18926822  1.50000000
C   907.38000000  7.64878037  1.50000000
C   907.38000000  10.10829251  1.50000000
C   907.38000000  12.56780466  1.50000000
C   907.38000000  15.02731681  1.50000000
C   907.38000000  17.48682895  1.50000000
C   907.38000000  19.94634110  1.50000000
C   907.38000000  22.40585325  1.50000000
C   907.38000000  24.86536539  1.50000000
C   908.09000000  1.50000000  1.50000000
C   908.09000000  3.95951215  1.50000000
C   908.09000000  6.41902429  1.50000000
C   908.09000000  8.87853644  1.50000000
C   908.09000000  11.33804859  1.50000000
C   908.09000000  13.79756073  1.50000000
C   908.09000000  16.25707288  1.50000000
C   908.09000000  18.71658503  1.50000000
C   908.09000000  21.17609717  1.50000000
C   908.09000000  23.63560932  1.50000000
C   908.09000000  26.09512147  1.50000000
C   909.51000000  1.50000000  1.50000000
C   909.51000000  3.95951215  1.50000000
C   909.51000000  6.41902429  1.50000000
C   909.51000000  8.87853644  1.50000000
C   909.51000000  11.33804859  1.50000000
C   909.51000000  13.79756073  1.50000000
C   909.51000000  16.25707288  1.50000000
C   909.51000000  18.71658503  1.50000000
C   909.51000000  21.17609717  1.50000000
C   909.51000000  23.63560932  1.50000000
C   909.51000000  26.09512147  1.50000000
C   910.22000000  2.72975607  1.50000000
C   910.22000000  5.18926822  1.50000000
C   910.22000000  7.64878037  1.50000000
C   910.22000000  10.10829251  1.50000000
C   910.22000000  12.56780466  1.50000000
C   910.22000000  15.02731681  1.50000000
C   910.22000000  17.48682895  1.50000000
C   910.22000000  19.94634110  1.50000000
C   910.22000000  22.40585325  1.50000000
C   910.22000000  24.86536539  1.50000000
C   911.64000000  2.72975607  1.50000000
C   911.64000000  5.18926822  1.50000000
C   911.64000000  7.64878037  1.50000000
C   911.64000000  10.10829251  1.50000000
C   911.64000000  12.56780466  1.50000000
C   911.64000000  15.02731681  1.50000000
C   911.64000000  17.48682895  1.50000000
C   911.64000000  19.94634110  1.50000000
C   911.64000000  22.40585325  1.50000000
C   911.64000000  24.86536539  1.50000000
C   912.35000000  1.50000000  1.50000000
C   912.35000000  3.95951215  1.50000000
C   912.35000000  6.41902429  1.50000000
C   912.35000000  8.87853644  1.50000000
C   912.35000000  11.33804859  1.50000000
C   912.35000000  13.79756073  1.50000000
C   912.35000000  16.25707288  1.50000000
C   912.35000000  18.71658503  1.50000000
C   912.35000000  21.17609717  1.50000000
C   912.35000000  23.63560932  1.50000000
C   912.35000000  26.09512147  1.50000000
C   913.77000000  1.50000000  1.50000000
C   913.77000000  3.95951215  1.50000000
C   913.77000000  6.41902429  1.50000000
C   913.77000000  8.87853644  1.50000000
C   913.77000000  11.33804859  1.50000000
C   913.77000000  13.79756073  1.50000000
C   913.77000000  16.25707288  1.50000000
C   913.77000000  18.71658503  1.50000000
C   913.77000000  21.17609717  1.50000000
C   913.77000000  23.63560932  1.50000000
C   913.77000000  26.09512147  1.50000000
C   914.48000000  2.72975607  1.50000000
C   914.48000000  5.18926822  1.50000000
C   914.48000000  7.64878037  1.50000000
C   914.48000000  10.10829251  1.50000000
C   914.48000000  12.56780466  1.50000000
C   914.48000000  15.02731681  1.50000000
C   914.48000000  17.48682895  1.50000000
C   914.48000000  19.94634110  1.50000000
C   914.48000000  22.40585325  1.50000000
C   914.48000000  24.86536539  1.50000000
C   915.90000000  2.72975607  1.50000000
C   915.90000000  5.18926822  1.50000000
C   915.90000000  7.64878037  1.50000000
C   915.90000000  10.10829251  1.50000000
C   915.90000000  12.56780466  1.50000000
C   915.90000000  15.02731681  1.50000000
C   915.90000000  17.48682895  1.50000000
C   915.90000000  19.94634110  1.50000000
C   915.90000000  22.40585325  1.50000000
C   915.90000000  24.86536539  1.50000000
C   916.61000000  1.50000000  1.50000000
C   916.61000000  3.95951215  1.50000000
C   916.61000000  6.41902429  1.50000000
C   916.61000000  8.87853644  1.50000000
C   916.61000000  11.33804859  1.50000000
C   916.61000000  13.79756073  1.50000000
C   916.61000000  16.25707288  1.50000000
C   916.61000000  18.71658503  1.50000000
C   916.61000000  21.17609717  1.50000000
C   916.61000000  23.63560932  1.50000000
C   916.61000000  26.09512147  1.50000000
C   918.03000000  1.50000000  1.50000000
C   918.03000000  3.95951215  1.50000000
C   918.03000000  6.41902429  1.50000000
C   918.03000000  8.87853644  1.50000000
C   918.03000000  11.33804859  1.50000000
C   918.03000000  13.79756073  1.50000000
C   918.03000000  16.25707288  1.50000000
C   918.03000000  18.71658503  1.50000000
C   918.03000000  21.17609717  1.50000000
C   918.03000000  23.63560932  1.50000000
C   918.03000000  26.09512147  1.50000000
C   918.74000000  2.72975607  1.50000000
C   918.74000000  5.18926822  1.50000000
C   918.74000000  7.64878037  1.50000000
C   918.74000000  10.10829251  1.50000000
C   918.74000000  12.56780466  1.50000000
C   918.74000000  15.02731681  1.50000000
C   918.74000000  17.48682895  1.50000000
C   918.74000000  19.94634110  1.50000000
C   918.74000000  22.40585325  1.50000000
C   918.74000000  24.86536539  1.50000000
C   920.16000000  2.72975607  1.50000000
C   920.16000000  5.18926822  1.50000000
C   920.16000000  7.64878037  1.50000000
C   920.16000000  10.10829251  1.50000000
C   920.16000000  12.56780466  1.50000000
C   920.16000000  15.02731681  1.50000000
C   920.16000000  17.48682895  1.50000000
C   920.16000000  19.94634110  1.50000000
C   920.16000000  22.40585325  1.50000000
C   920.16000000  24.86536539  1.50000000
C   920.87000000  1.50000000  1.50000000
C   920.87000000  3.95951215  1.50000000
C   920.87000000  6.41902429  1.50000000
C   920.87000000  8.87853644  1.50000000
C   920.87000000  11.33804859  1.50000000
C   920.87000000  13.79756073  1.50000000
C   920.87000000  16.25707288  1.50000000
C   920.87000000  18.71658503  1.50000000
C   920.87000000  21.17609717  1.50000000
C   920.87000000  23.63560932  1.50000000
C   920.87000000  26.09512147  1.50000000
C   922.29000000  1.50000000  1.50000000
C   922.29000000  3.95951215  1.50000000
C   922.29000000  6.41902429  1.50000000
C   922.29000000  8.87853644  1.50000000
C   922.29000000  11.33804859  1.50000000
C   922.29000000  13.79756073  1.50000000
C   922.29000000  16.25707288  1.50000000
C   922.29000000  18.71658503  1.50000000
C   922.29000000  21.17609717  1.50000000
C   922.29000000  23.63560932  1.50000000
C   922.29000000  26.09512147  1.50000000
C   923.00000000  2.72975607  1.50000000
C   923.00000000  5.18926822  1.50000000
C   923.00000000  7.64878037  1.50000000
C   923.00000000  10.10829251  1.50000000
C   923.00000000  12.56780466  1.50000000
C   923.00000000  15.02731681  1.50000000
C   923.00000000  17.48682895  1.50000000
C   923.00000000  19.94634110  1.50000000
C   923.00000000  22.40585325  1.50000000
C   923.00000000  24.86536539  1.50000000
C   924.42000000  2.72975607  1.50000000
C   924.42000000  5.18926822  1.50000000
C   924.42000000  7.64878037  1.50000000
C   924.42000000  10.10829251  1.50000000
C   924.42000000  12.56780466  1.50000000
C   924.42000000  15.02731681  1.50000000
C   924.42000000  17.48682895  1.50000000
C   924.42000000  19.94634110  1.50000000
C   924.42000000  22.40585325  1.50000000
C   924.42000000  24.86536539  1.50000000
C   925.13000000  1.50000000  1.50000000
C   925.13000000  3.95951215  1.50000000
C   925.13000000  6.41902429  1.50000000
C   925.13000000  8.87853644  1.50000000
C   925.13000000  11.33804859  1.50000000
C   925.13000000  13.79756073  1.50000000
C   925.13000000  16.25707288  1.50000000
C   925.13000000  18.71658503  1.50000000
C   925.13000000  21.17609717  1.50000000
C   925.13000000  23.63560932  1.50000000
C   925.13000000  26.09512147  1.50000000
C   926.55000000  1.50000000  1.50000000
C   926.55000000  3.95951215  1.50000000
C   926.55000000  6.41902429  1.50000000
C   926.55000000  8.87853644  1.50000000
C   926.55000000  11.33804859  1.50000000
C   926.55000000  13.79756073  1.50000000
C   926.55000000  16.25707288  1.50000000
C   926.55000000  18.71658503  1.50000000
C   926.55000000  21.17609717  1.50000000
C   926.55000000  23.63560932  1.50000000
C   926.55000000  26.09512147  1.50000000
C   927.26000000  2.72975607  1.50000000
C   927.26000000  5.18926822  1.50000000
C   927.26000000  7.64878037  1.50000000
C   927.26000000  10.10829251  1.50000000
C   927.26000000  12.56780466  1.50000000
C   927.26000000  15.02731681  1.50000000
C   927.26000000  17.48682895  1.50000000
C   927.26000000  19.94634110  1.50000000
C   927.26000000  22.40585325  1.50000000
C   927.26000000  24.86536539  1.50000000
C   928.68000000  2.72975607  1.50000000
C   928.68000000  5.18926822  1.50000000
C   928.68000000  7.64878037  1.50000000
C   928.68000000  10.10829251  1.50000000
C   928.68000000  12.56780466  1.50000000
C   928.68000000  15.02731681  1.50000000
C   928.68000000  17.48682895  1.50000000
C   928.68000000  19.94634110  1.50000000
C   928.68000000  22.40585325  1.50000000
C   928.68000000  24.86536539  1.50000000
C   929.39000000  1.50000000  1.50000000
C   929.39000000  3.95951215  1.50000000
C   929.39000000  6.41902429  1.50000000
C   929.39000000  8.87853644  1.50000000
C   929.39000000  11.33804859  1.50000000
C   929.39000000  13.79756073  1.50000000
C   929.39000000  16.25707288  1.50000000
C   929.39000000  18.71658503  1.50000000
C   929.39000000  21.17609717  1.50000000
C   929.39000000  23.63560932  1.50000000
C   929.39000000  26.09512147  1.50000000
C   930.81000000  1.50000000  1.50000000
C   930.81000000  3.95951215  1.50000000
C   930.81000000  6.41902429  1.50000000
C   930.81000000  8.87853644  1.50000000
C   930.81000000  11.33804859  1.50000000
C   930.81000000  13.79756073  1.50000000
C   930.81000000  16.25707288  1.50000000
C   930.81000000  18.71658503  1.50000000
C   930.81000000  21.17609717  1.50000000
C   930.81000000  23.63560932  1.50000000
C   930.81000000  26.09512147  1.50000000
C   931.52000000  2.72975607  1.50000000
C   931.52000000  5.18926822  1.50000000
C   931.52000000  7.64878037  1.50000000
C   931.52000000  10.10829251  1.50000000
C   931.52000000  12.56780466  1.50000000
C   931.52000000  15.02731681  1.50000000
C   931.52000000  17.48682895  1.50000000
C   931.52000000  19.94634110  1.50000000
C   931.52000000  22.40585325  1.50000000
C   931.52000000  24.86536539  1.50000000
C   932.94000000  2.72975607  1.50000000
C   932.94000000  5.18926822  1.50000000
C   932.94000000  7.64878037  1.50000000
C   932.94000000  10.10829251  1.50000000
C   932.94000000  12.56780466  1.50000000
C   932.94000000  15.02731681  1.50000000
C   932.94000000  17.48682895  1.50000000
C   932.94000000  19.94634110  1.50000000
C   932.94000000  22.40585325  1.50000000
C   932.94000000  24.86536539  1.50000000
C   933.65000000  1.50000000  1.50000000
C   933.65000000  3.95951215  1.50000000
C   933.65000000  6.41902429  1.50000000
C   933.65000000  8.87853644  1.50000000
C   933.65000000  11.33804859  1.50000000
C   933.65000000  13.79756073  1.50000000
C   933.65000000  16.25707288  1.50000000
C   933.65000000  18.71658503  1.50000000
C   933.65000000  21.17609717  1.50000000
C   933.65000000  23.63560932  1.50000000
C   933.65000000  26.09512147  1.50000000
C   935.07000000  1.50000000  1.50000000
C   935.07000000  3.95951215  1.50000000
C   935.07000000  6.41902429  1.50000000
C   935.07000000  8.87853644  1.50000000
C   935.07000000  11.33804859  1.50000000
C   935.07000000  13.79756073  1.50000000
C   935.07000000  16.25707288  1.50000000
C   935.07000000  18.71658503  1.50000000
C   935.07000000  21.17609717  1.50000000
C   935.07000000  23.63560932  1.50000000
C   935.07000000  26.09512147  1.50000000
C   935.78000000  2.72975607  1.50000000
C   935.78000000  5.18926822  1.50000000
C   935.78000000  7.64878037  1.50000000
C   935.78000000  10.10829251  1.50000000
C   935.78000000  12.56780466  1.50000000
C   935.78000000  15.02731681  1.50000000
C   935.78000000  17.48682895  1.50000000
C   935.78000000  19.94634110  1.50000000
C   935.78000000  22.40585325  1.50000000
C   935.78000000  24.86536539  1.50000000
C   937.20000000  2.72975607  1.50000000
C   937.20000000  5.18926822  1.50000000
C   937.20000000  7.64878037  1.50000000
C   937.20000000  10.10829251  1.50000000
C   937.20000000  12.56780466  1.50000000
C   937.20000000  15.02731681  1.50000000
C   937.20000000  17.48682895  1.50000000
C   937.20000000  19.94634110  1.50000000
C   937.20000000  22.40585325  1.50000000
C   937.20000000  24.86536539  1.50000000
C   937.91000000  1.50000000  1.50000000
C   937.91000000  3.95951215  1.50000000
C   937.91000000  6.41902429  1.50000000
C   937.91000000  8.87853644  1.50000000
C   937.91000000  11.33804859  1.50000000
C   937.91000000  13.79756073  1.50000000
C   937.91000000  16.25707288  1.50000000
C   937.91000000  18.71658503  1.50000000
C   937.91000000  21.17609717  1.50000000
C   937.91000000  23.63560932  1.50000000
C   937.91000000  26.09512147  1.50000000
C   939.33000000  1.50000000  1.50000000
C   939.33000000  3.95951215  1.50000000
C   939.33000000  6.41902429  1.50000000
C   939.33000000  8.87853644  1.50000000
C   939.33000000  11.33804859  1.50000000
C   939.33000000  13.79756073  1.50000000
C   939.33000000  16.25707288  1.50000000
C   939.33000000  18.71658503  1.50000000
C   939.33000000  21.17609717  1.50000000
C   939.33000000  23.63560932  1.50000000
C   939.33000000  26.09512147  1.50000000
C   940.04000000  2.72975607  1.50000000
C   940.04000000  5.18926822  1.50000000
C   940.04000000  7.64878037  1.50000000
C   940.04000000  10.10829251  1.50000000
C   940.04000000  12.56780466  1.50000000
C   940.04000000  15.02731681  1.50000000
C   940.04000000  17.48682895  1.50000000
C   940.04000000  19.94634110  1.50000000
C   940.04000000  22.40585325  1.50000000
C   940.04000000  24.86536539  1.50000000
C   941.46000000  2.72975607  1.50000000
C   941.46000000  5.18926822  1.50000000
C   941.46000000  7.64878037  1.50000000
C   941.46000000  10.10829251  1.50000000
C   941.46000000  12.56780466  1.50000000
C   941.46000000  15.02731681  1.50000000
C   941.46000000  17.48682895  1.50000000
C   941.46000000  19.94634110  1.50000000
C   941.46000000  22.40585325  1.50000000
C   941.46000000  24.86536539  1.50000000
C   942.17000000  1.50000000  1.50000000
C   942.17000000  3.95951215  1.50000000
C   942.17000000  6.41902429  1.50000000
C   942.17000000  8.87853644  1.50000000
C   942.17000000  11.33804859  1.50000000
C   942.17000000  13.79756073  1.50000000
C   942.17000000  16.25707288  1.50000000
C   942.17000000  18.71658503  1.50000000
C   942.17000000  21.17609717  1.50000000
C   942.17000000  23.63560932  1.50000000
C   942.17000000  26.09512147  1.50000000
C   943.59000000  1.50000000  1.50000000
C   943.59000000  3.95951215  1.50000000
C   943.59000000  6.41902429  1.50000000
C   943.59000000  8.87853644  1.50000000
C   943.59000000  11.33804859  1.50000000
C   943.59000000  13.79756073  1.50000000
C   943.59000000  16.25707288  1.50000000
C   943.59000000  18.71658503  1.50000000
C   943.59000000  21.17609717  1.50000000
C   943.59000000  23.63560932  1.50000000
C   943.59000000  26.09512147  1.50000000
C   944.30000000  2.72975607  1.50000000
C   944.30000000  5.18926822  1.50000000
C   944.30000000  7.64878037  1.50000000
C   944.30000000  10.10829251  1.50000000
C   944.30000000  12.56780466  1.50000000
C   944.30000000  15.02731681  1.50000000
C   944.30000000  17.48682895  1.50000000
C   944.30000000  19.94634110  1.50000000
C   944.30000000  22.40585325  1.50000000
C   944.30000000  24.86536539  1.50000000
C   945.72000000  2.72975607  1.50000000
C   945.72000000  5.18926822  1.50000000
C   945.72000000  7.64878037  1.50000000
C   945.72000000  10.10829251  1.50000000
C   945.72000000  12.56780466  1.50000000
C   945.72000000  15.02731681  1.50000000
C   945.72000000  17.48682895  1.50000000
C   945.72000000  19.94634110  1.50000000
C   945.72000000  22.40585325  1.50000000
C   945.72000000  24.86536539  1.50000000
C   946.43000000  1.50000000  1.50000000
C   946.43000000  3.95951215  1.50000000
C   946.43000000  6.41902429  1.50000000
C   946.43000000  8.87853644  1.50000000
C   946.43000000  11.33804859  1.50000000
C   946.43000000  13.79756073  1.50000000
C   946.43000000  16.25707288  1.50000000
C   946.43000000  18.71658503  1.50000000
C   946.43000000  21.17609717  1.50000000
C   946.43000000  23.63560932  1.50000000
C   946.43000000  26.09512147  1.50000000
C   947.85000000  1.50000000  1.50000000
C   947.85000000  3.95951215  1.50000000
C   947.85000000  6.41902429  1.50000000
C   947.85000000  8.87853644  1.50000000
C   947.85000000  11.33804859  1.50000000
C   947.85000000  13.79756073  1.50000000
C   947.85000000  16.25707288  1.50000000
C   947.85000000  18.71658503  1.50000000
C   947.85000000  21.17609717  1.50000000
C   947.85000000  23.63560932  1.50000000
C   947.85000000  26.09512147  1.50000000
C   948.56000000  2.72975607  1.50000000
C   948.56000000  5.18926822  1.50000000
C   948.56000000  7.64878037  1.50000000
C   948.56000000  10.10829251  1.50000000
C   948.56000000  12.56780466  1.50000000
C   948.56000000  15.02731681  1.50000000
C   948.56000000  17.48682895  1.50000000
C   948.56000000  19.94634110  1.50000000
C   948.56000000  22.40585325  1.50000000
C   948.56000000  24.86536539  1.50000000
C   949.98000000  2.72975607  1.50000000
C   949.98000000  5.18926822  1.50000000
C   949.98000000  7.64878037  1.50000000
C   949.98000000  10.10829251  1.50000000
C   949.98000000  12.56780466  1.50000000
C   949.98000000  15.02731681  1.50000000
C   949.98000000  17.48682895  1.50000000
C   949.98000000  19.94634110  1.50000000
C   949.98000000  22.40585325  1.50000000
C   949.98000000  24.86536539  1.50000000
C   950.69000000  1.50000000  1.50000000
C   950.69000000  3.95951215  1.50000000
C   950.69000000  6.41902429  1.50000000
C   950.69000000  8.87853644  1.50000000
C   950.69000000  11.33804859  1.50000000
C   950.69000000  13.79756073  1.50000000
C   950.69000000  16.25707288  1.50000000
C   950.69000000  18.71658503  1.50000000
C   950.69000000  21.17609717  1.50000000
C   950.69000000  23.63560932  1.50000000
C   950.69000000  26.09512147  1.50000000
C   952.11000000  1.50000000  1.50000000
C   952.11000000  3.95951215  1.50000000
C   952.11000000  6.41902429  1.50000000
C   952.11000000  8.87853644  1.50000000
C   952.11000000  11.33804859  1.50000000
C   952.11000000  13.79756073  1.50000000
C   952.11000000  16.25707288  1.50000000
C   952.11000000  18.71658503  1.50000000
C   952.11000000  21.17609717  1.50000000
C   952.11000000  23.63560932  1.50000000
C   952.11000000  26.09512147  1.50000000
C   952.82000000  2.72975607  1.50000000
C   952.82000000  5.18926822  1.50000000
C   952.82000000  7.64878037  1.50000000
C   952.82000000  10.10829251  1.50000000
C   952.82000000  12.56780466  1.50000000
C   952.82000000  15.02731681  1.50000000
C   952.82000000  17.48682895  1.50000000
C   952.82000000  19.94634110  1.50000000
C   952.82000000  22.40585325  1.50000000
C   952.82000000  24.86536539  1.50000000
C   954.24000000  2.72975607  1.50000000
C   954.24000000  5.18926822  1.50000000
C   954.24000000  7.64878037  1.50000000
C   954.24000000  10.10829251  1.50000000
C   954.24000000  12.56780466  1.50000000
C   954.24000000  15.02731681  1.50000000
C   954.24000000  17.48682895  1.50000000
C   954.24000000  19.94634110  1.50000000
C   954.24000000  22.40585325  1.50000000
C   954.24000000  24.86536539  1.50000000
C   954.95000000  1.50000000  1.50000000
C   954.95000000  3.95951215  1.50000000
C   954.95000000  6.41902429  1.50000000
C   954.95000000  8.87853644  1.50000000
C   954.95000000  11.33804859  1.50000000
C   954.95000000  13.79756073  1.50000000
C   954.95000000  16.25707288  1.50000000
C   954.95000000  18.71658503  1.50000000
C   954.95000000  21.17609717  1.50000000
C   954.95000000  23.63560932  1.50000000
C   954.95000000  26.09512147  1.50000000
C   956.37000000  1.50000000  1.50000000
C   956.37000000  3.95951215  1.50000000
C   956.37000000  6.41902429  1.50000000
C   956.37000000  8.87853644  1.50000000
C   956.37000000  11.33804859  1.50000000
C   956.37000000  13.79756073  1.50000000
C   956.37000000  16.25707288  1.50000000
C   956.37000000  18.71658503  1.50000000
C   956.37000000  21.17609717  1.50000000
C   956.37000000  23.63560932  1.50000000
C   956.37000000  26.09512147  1.50000000
C   957.08000000  2.72975607  1.50000000
C   957.08000000  5.18926822  1.50000000
C   957.08000000  7.64878037  1.50000000
C   957.08000000  10.10829251  1.50000000
C   957.08000000  12.56780466  1.50000000
C   957.08000000  15.02731681  1.50000000
C   957.08000000  17.48682895  1.50000000
C   957.08000000  19.94634110  1.50000000
C   957.08000000  22.40585325  1.50000000
C   957.08000000  24.86536539  1.50000000
C   958.50000000  2.72975607  1.50000000
C   958.50000000  5.18926822  1.50000000
C   958.50000000  7.64878037  1.50000000
C   958.50000000  10.10829251  1.50000000
C   958.50000000  12.56780466  1.50000000
C   958.50000000  15.02731681  1.50000000
C   958.50000000  17.48682895  1.50000000
C   958.50000000  19.94634110  1.50000000
C   958.50000000  22.40585325  1.50000000
C   958.50000000  24.86536539  1.50000000
C   959.21000000  1.50000000  1.50000000
C   959.21000000  3.95951215  1.50000000
C   959.21000000  6.41902429  1.50000000
C   959.21000000  8.87853644  1.50000000
C   959.21000000  11.33804859  1.50000000
C   959.21000000  13.79756073  1.50000000
C   959.21000000  16.25707288  1.50000000
C   959.21000000  18.71658503  1.50000000
C   959.21000000  21.17609717  1.50000000
C   959.21000000  23.63560932  1.50000000
C   959.21000000  26.09512147  1.50000000
C   960.63000000  1.50000000  1.50000000
C   960.63000000  3.95951215  1.50000000
C   960.63000000  6.41902429  1.50000000
C   960.63000000  8.87853644  1.50000000
C   960.63000000  11.33804859  1.50000000
C   960.63000000  13.79756073  1.50000000
C   960.63000000  16.25707288  1.50000000
C   960.63000000  18.71658503  1.50000000
C   960.63000000  21.17609717  1.50000000
C   960.63000000  23.63560932  1.50000000
C   960.63000000  26.09512147  1.50000000
C   961.34000000  2.72975607  1.50000000
C   961.34000000  5.18926822  1.50000000
C   961.34000000  7.64878037  1.50000000
C   961.34000000  10.10829251  1.50000000
C   961.34000000  12.56780466  1.50000000
C   961.34000000  15.02731681  1.50000000
C   961.34000000  17.48682895  1.50000000
C   961.34000000  19.94634110  1.50000000
C   961.34000000  22.40585325  1.50000000
C   961.34000000  24.86536539  1.50000000
C   962.76000000  2.72975607  1.50000000
C   962.76000000  5.18926822  1.50000000
C   962.76000000  7.64878037  1.50000000
C   962.76000000  10.10829251  1.50000000
C   962.76000000  12.56780466  1.50000000
C   962.76000000  15.02731681  1.50000000
C   962.76000000  17.48682895  1.50000000
C   962.76000000  19.94634110  1.50000000
C   962.76000000  22.40585325  1.50000000
C   962.76000000  24.86536539  1.50000000
C   963.47000000  1.50000000  1.50000000
C   963.47000000  3.95951215  1.50000000
C   963.47000000  6.41902429  1.50000000
C   963.47000000  8.87853644  1.50000000
C   963.47000000  11.33804859  1.50000000
C   963.47000000  13.79756073  1.50000000
C   963.47000000  16.25707288  1.50000000
C   963.47000000  18.71658503  1.50000000
C   963.47000000  21.17609717  1.50000000
C   963.47000000  23.63560932  1.50000000
C   963.47000000  26.09512147  1.50000000
C   964.89000000  1.50000000  1.50000000
C   964.89000000  3.95951215  1.50000000
C   964.89000000  6.41902429  1.50000000
C   964.89000000  8.87853644  1.50000000
C   964.89000000  11.33804859  1.50000000
C   964.89000000  13.79756073  1.50000000
C   964.89000000  16.25707288  1.50000000
C   964.89000000  18.71658503  1.50000000
C   964.89000000  21.17609717  1.50000000
C   964.89000000  23.63560932  1.50000000
C   964.89000000  26.09512147  1.50000000
C   965.60000000  2.72975607  1.50000000
C   965.60000000  5.18926822  1.50000000
C   965.60000000  7.64878037  1.50000000
C   965.60000000  10.10829251  1.50000000
C   965.60000000  12.56780466  1.50000000
C   965.60000000  15.02731681  1.50000000
C   965.60000000  17.48682895  1.50000000
C   965.60000000  19.94634110  1.50000000
C   965.60000000  22.40585325  1.50000000
C   965.60000000  24.86536539  1.50000000
C   967.02000000  2.72975607  1.50000000
C   967.02000000  5.18926822  1.50000000
C   967.02000000  7.64878037  1.50000000
C   967.02000000  10.10829251  1.50000000
C   967.02000000  12.56780466  1.50000000
C   967.02000000  15.02731681  1.50000000
C   967.02000000  17.48682895  1.50000000
C   967.02000000  19.94634110  1.50000000
C   967.02000000  22.40585325  1.50000000
C   967.02000000  24.86536539  1.50000000
C   967.73000000  1.50000000  1.50000000
C   967.73000000  3.95951215  1.50000000
C   967.73000000  6.41902429  1.50000000
C   967.73000000  8.87853644  1.50000000
C   967.73000000  11.33804859  1.50000000
C   967.73000000  13.79756073  1.50000000
C   967.73000000  16.25707288  1.50000000
C   967.73000000  18.71658503  1.50000000
C   967.73000000  21.17609717  1.50000000
C   967.73000000  23.63560932  1.50000000
C   967.73000000  26.09512147  1.50000000
C   969.15000000  1.50000000  1.50000000
C   969.15000000  3.95951215  1.50000000
C   969.15000000  6.41902429  1.50000000
C   969.15000000  8.87853644  1.50000000
C   969.15000000  11.33804859  1.50000000
C   969.15000000  13.79756073  1.50000000
C   969.15000000  16.25707288  1.50000000
C   969.15000000  18.71658503  1.50000000
C   969.15000000  21.17609717  1.50000000
C   969.15000000  23.63560932  1.50000000
C   969.15000000  26.09512147  1.50000000
C   969.86000000  2.72975607  1.50000000
C   969.86000000  5.18926822  1.50000000
C   969.86000000  7.64878037  1.50000000
C   969.86000000  10.10829251  1.50000000
C   969.86000000  12.56780466  1.50000000
C   969.86000000  15.02731681  1.50000000
C   969.86000000  17.48682895  1.50000000
C   969.86000000  19.94634110  1.50000000
C   969.86000000  22.40585325  1.50000000
C   969.86000000  24.86536539  1.50000000
C   971.28000000  2.72975607  1.50000000
C   971.28000000  5.18926822  1.50000000
C   971.28000000  7.64878037  1.50000000
C   971.28000000  10.10829251  1.50000000
C   971.28000000  12.56780466  1.50000000
C   971.28000000  15.02731681  1.50000000
C   971.28000000  17.48682895  1.50000000
C   971.28000000  19.94634110  1.50000000
C   971.28000000  22.40585325  1.50000000
C   971.28000000  24.86536539  1.50000000
C   971.99000000  1.50000000  1.50000000
C   971.99000000  3.95951215  1.50000000
C   971.99000000  6.41902429  1.50000000
C   971.99000000  8.87853644  1.50000000
C   971.99000000  11.33804859  1.50000000
C   971.99000000  13.79756073  1.50000000
C   971.99000000  16.25707288  1.50000000
C   971.99000000  18.71658503  1.50000000
C   971.99000000  21.17609717  1.50000000
C   971.99000000  23.63560932  1.50000000
C   971.99000000  26.09512147  1.50000000
C   973.41000000  1.50000000  1.50000000
C   973.41000000  3.95951215  1.50000000
C   973.41000000  6.41902429  1.50000000
C   973.41000000  8.87853644  1.50000000
C   973.41000000  11.33804859  1.50000000
C   973.41000000  13.79756073  1.50000000
C   973.41000000  16.25707288  1.50000000
C   973.41000000  18.71658503  1.50000000
C   973.41000000  21.17609717  1.50000000
C   973.41000000  23.63560932  1.50000000
C   973.41000000  26.09512147  1.50000000
C   974.12000000  2.72975607  1.50000000
C   974.12000000  5.18926822  1.50000000
C   974.12000000  7.64878037  1.50000000
C   974.12000000  10.10829251  1.50000000
C   974.12000000  12.56780466  1.50000000
C   974.12000000  15.02731681  1.50000000
C   974.12000000  17.48682895  1.50000000
C   974.12000000  19.94634110  1.50000000
C   974.12000000  22.40585325  1.50000000
C   974.12000000  24.86536539  1.50000000
C   975.54000000  2.72975607  1.50000000
C   975.54000000  5.18926822  1.50000000
C   975.54000000  7.64878037  1.50000000
C   975.54000000  10.10829251  1.50000000
C   975.54000000  12.56780466  1.50000000
C   975.54000000  15.02731681  1.50000000
C   975.54000000  17.48682895  1.50000000
C   975.54000000  19.94634110  1.50000000
C   975.54000000  22.40585325  1.50000000
C   975.54000000  24.86536539  1.50000000
C   976.25000000  1.50000000  1.50000000
C   976.25000000  3.95951215  1.50000000
C   976.25000000  6.41902429  1.50000000
C   976.25000000  8.87853644  1.50000000
C   976.25000000  11.33804859  1.50000000
C   976.25000000  13.79756073  1.50000000
C   976.25000000  16.25707288  1.50000000
C   976.25000000  18.71658503  1.50000000
C   976.25000000  21.17609717  1.50000000
C   976.25000000  23.63560932  1.50000000
C   976.25000000  26.09512147  1.50000000
C   977.67000000  1.50000000  1.50000000
C   977.67000000  3.95951215  1.50000000
C   977.67000000  6.41902429  1.50000000
C   977.67000000  8.87853644  1.50000000
C   977.67000000  11.33804859  1.50000000
C   977.67000000  13.79756073  1.50000000
C   977.67000000  16.25707288  1.50000000
C   977.67000000  18.71658503  1.50000000
C   977.67000000  21.17609717  1.50000000
C   977.67000000  23.63560932  1.50000000
C   977.67000000  26.09512147  1.50000000
C   978.38000000  2.72975607  1.50000000
C   978.38000000  5.18926822  1.50000000
C   978.38000000  7.64878037  1.50000000
C   978.38000000  10.10829251  1.50000000
C   978.38000000  12.56780466  1.50000000
C   978.38000000  15.02731681  1.50000000
C   978.38000000  17.48682895  1.50000000
C   978.38000000  19.94634110  1.50000000
C   978.38000000  22.40585325  1.50000000
C   978.38000000  24.86536539  1.50000000
C   979.80000000  2.72975607  1.50000000
C   979.80000000  5.18926822  1.50000000
C   979.80000000  7.64878037  1.50000000
C   979.80000000  10.10829251  1.50000000
C   979.80000000  12.56780466  1.50000000
C   979.80000000  15.02731681  1.50000000
C   979.80000000  17.48682895  1.50000000
C   979.80000000  19.94634110  1.50000000
C   979.80000000  22.40585325  1.50000000
C   979.80000000  24.86536539  1.50000000
C   980.51000000  1.50000000  1.50000000
C   980.51000000  3.95951215  1.50000000
C   980.51000000  6.41902429  1.50000000
C   980.51000000  8.87853644  1.50000000
C   980.51000000  11.33804859  1.50000000
C   980.51000000  13.79756073  1.50000000
C   980.51000000  16.25707288  1.50000000
C   980.51000000  18.71658503  1.50000000
C   980.51000000  21.17609717  1.50000000
C   980.51000000  23.63560932  1.50000000
C   980.51000000  26.09512147  1.50000000
C   981.93000000  1.50000000  1.50000000
C   981.93000000  3.95951215  1.50000000
C   981.93000000  6.41902429  1.50000000
C   981.93000000  8.87853644  1.50000000
C   981.93000000  11.33804859  1.50000000
C   981.93000000  13.79756073  1.50000000
C   981.93000000  16.25707288  1.50000000
C   981.93000000  18.71658503  1.50000000
C   981.93000000  21.17609717  1.50000000
C   981.93000000  23.63560932  1.50000000
C   981.93000000  26.09512147  1.50000000
C   982.64000000  2.72975607  1.50000000
C   982.64000000  5.18926822  1.50000000
C   982.64000000  7.64878037  1.50000000
C   982.64000000  10.10829251  1.50000000
C   982.64000000  12.56780466  1.50000000
C   982.64000000  15.02731681  1.50000000
C   982.64000000  17.48682895  1.50000000
C   982.64000000  19.94634110  1.50000000
C   982.64000000  22.40585325  1.50000000
C   982.64000000  24.86536539  1.50000000
C   984.06000000  2.72975607  1.50000000
C   984.06000000  5.18926822  1.50000000
C   984.06000000  7.64878037  1.50000000
C   984.06000000  10.10829251  1.50000000
C   984.06000000  12.56780466  1.50000000
C   984.06000000  15.02731681  1.50000000
C   984.06000000  17.48682895  1.50000000
C   984.06000000  19.94634110  1.50000000
C   984.06000000  22.40585325  1.50000000
C   984.06000000  24.86536539  1.50000000
C   984.77000000  1.50000000  1.50000000
C   984.77000000  3.95951215  1.50000000
C   984.77000000  6.41902429  1.50000000
C   984.77000000  8.87853644  1.50000000
C   984.77000000  11.33804859  1.50000000
C   984.77000000  13.79756073  1.50000000
C   984.77000000  16.25707288  1.50000000
C   984.77000000  18.71658503  1.50000000
C   984.77000000  21.17609717  1.50000000
C   984.77000000  23.63560932  1.50000000
C   984.77000000  26.09512147  1.50000000
C   986.19000000  1.50000000  1.50000000
C   986.19000000  3.95951215  1.50000000
C   986.19000000  6.41902429  1.50000000
C   986.19000000  8.87853644  1.50000000
C   986.19000000  11.33804859  1.50000000
C   986.19000000  13.79756073  1.50000000
C   986.19000000  16.25707288  1.50000000
C   986.19000000  18.71658503  1.50000000
C   986.19000000  21.17609717  1.50000000
C   986.19000000  23.63560932  1.50000000
C   986.19000000  26.09512147  1.50000000
C   986.90000000  2.72975607  1.50000000
C   986.90000000  5.18926822  1.50000000
C   986.90000000  7.64878037  1.50000000
C   986.90000000  10.10829251  1.50000000
C   986.90000000  12.56780466  1.50000000
C   986.90000000  15.02731681  1.50000000
C   986.90000000  17.48682895  1.50000000
C   986.90000000  19.94634110  1.50000000
C   986.90000000  22.40585325  1.50000000
C   986.90000000  24.86536539  1.50000000
C   988.32000000  2.72975607  1.50000000
C   988.32000000  5.18926822  1.50000000
C   988.32000000  7.64878037  1.50000000
C   988.32000000  10.10829251  1.50000000
C   988.32000000  12.56780466  1.50000000
C   988.32000000  15.02731681  1.50000000
C   988.32000000  17.48682895  1.50000000
C   988.32000000  19.94634110  1.50000000
C   988.32000000  22.40585325  1.50000000
C   988.32000000  24.86536539  1.50000000
C   989.03000000  1.50000000  1.50000000
C   989.03000000  3.95951215  1.50000000
C   989.03000000  6.41902429  1.50000000
C   989.03000000  8.87853644  1.50000000
C   989.03000000  11.33804859  1.50000000
C   989.03000000  13.79756073  1.50000000
C   989.03000000  16.25707288  1.50000000
C   989.03000000  18.71658503  1.50000000
C   989.03000000  21.17609717  1.50000000
C   989.03000000  23.63560932  1.50000000
C   989.03000000  26.09512147  1.50000000
C   990.45000000  1.50000000  1.50000000
C   990.45000000  3.95951215  1.50000000
C   990.45000000  6.41902429  1.50000000
C   990.45000000  8.87853644  1.50000000
C   990.45000000  11.33804859  1.50000000
C   990.45000000  13.79756073  1.50000000
C   990.45000000  16.25707288  1.50000000
C   990.45000000  18.71658503  1.50000000
C   990.45000000  21.17609717  1.50000000
C   990.45000000  23.63560932  1.50000000
C   990.45000000  26.09512147  1.50000000
C   991.16000000  2.72975607  1.50000000
C   991.16000000  5.18926822  1.50000000
C   991.16000000  7.64878037  1.50000000
C   991.16000000  10.10829251  1.50000000
C   991.16000000  12.56780466  1.50000000
C   991.16000000  15.02731681  1.50000000
C   991.16000000  17.48682895  1.50000000
C   991.16000000  19.94634110  1.50000000
C   991.16000000  22.40585325  1.50000000
C   991.16000000  24.86536539  1.50000000
C   992.58000000  2.72975607  1.50000000
C   992.58000000  5.18926822  1.50000000
C   992.58000000  7.64878037  1.50000000
C   992.58000000  10.10829251  1.50000000
C   992.58000000  12.56780466  1.50000000
C   992.58000000  15.02731681  1.50000000
C   992.58000000  17.48682895  1.50000000
C   992.58000000  19.94634110  1.50000000
C   992.58000000  22.40585325  1.50000000
C   992.58000000  24.86536539  1.50000000
C   993.29000000  1.50000000  1.50000000
C   993.29000000  3.95951215  1.50000000
C   993.29000000  6.41902429  1.50000000
C   993.29000000  8.87853644  1.50000000
C   993.29000000  11.33804859  1.50000000
C   993.29000000  13.79756073  1.50000000
C   993.29000000  16.25707288  1.50000000
C   993.29000000  18.71658503  1.50000000
C   993.29000000  21.17609717  1.50000000
C   993.29000000  23.63560932  1.50000000
C   993.29000000  26.09512147  1.50000000
C   994.71000000  1.50000000  1.50000000
C   994.71000000  3.95951215  1.50000000
C   994.71000000  6.41902429  1.50000000
C   994.71000000  8.87853644  1.50000000
C   994.71000000  11.33804859  1.50000000
C   994.71000000  13.79756073  1.50000000
C   994.71000000  16.25707288  1.50000000
C   994.71000000  18.71658503  1.50000000
C   994.71000000  21.17609717  1.50000000
C   994.71000000  23.63560932  1.50000000
C   994.71000000  26.09512147  1.50000000
C   995.42000000  2.72975607  1.50000000
C   995.42000000  5.18926822  1.50000000
C   995.42000000  7.64878037  1.50000000
C   995.42000000  10.10829251  1.50000000
C   995.42000000  12.56780466  1.50000000
C   995.42000000  15.02731681  1.50000000
C   995.42000000  17.48682895  1.50000000
C   995.42000000  19.94634110  1.50000000
C   995.42000000  22.40585325  1.50000000
C   995.42000000  24.86536539  1.50000000
C   996.84000000  2.72975607  1.50000000
C   996.84000000  5.18926822  1.50000000
C   996.84000000  7.64878037  1.50000000
C   996.84000000  10.10829251  1.50000000
C   996.84000000  12.56780466  1.50000000
C   996.84000000  15.02731681  1.50000000
C   996.84000000  17.48682895  1.50000000
C   996.84000000  19.94634110  1.50000000
C   996.84000000  22.40585325  1.50000000
C   996.84000000  24.86536539  1.50000000
C   997.55000000  1.50000000  1.50000000
C   997.55000000  3.95951215  1.50000000
C   997.55000000  6.41902429  1.50000000
C   997.55000000  8.87853644  1.50000000
C   997.55000000  11.33804859  1.50000000
C   997.55000000  13.79756073  1.50000000
C   997.55000000  16.25707288  1.50000000
C   997.55000000  18.71658503  1.50000000
C   997.55000000  21.17609717  1.50000000
C   997.55000000  23.63560932  1.50000000
C   997.55000000  26.09512147  1.50000000
C   998.97000000  1.50000000  1.50000000
C   998.97000000  3.95951215  1.50000000
C   998.97000000  6.41902429  1.50000000
C   998.97000000  8.87853644  1.50000000
C   998.97000000  11.33804859  1.50000000
C   998.97000000  13.79756073  1.50000000
C   998.97000000  16.25707288  1.50000000
C   998.97000000  18.71658503  1.50000000
C   998.97000000  21.17609717  1.50000000
C   998.97000000  23.63560932  1.50000000
C   998.97000000  26.09512147  1.50000000
C   999.68000000  2.72975607  1.50000000
C   999.68000000  5.18926822  1.50000000
C   999.68000000  7.64878037  1.50000000
C   999.68000000  10.10829251  1.50000000
C   999.68000000  12.56780466  1.50000000
C   999.68000000  15.02731681  1.50000000
C   999.68000000  17.48682895  1.50000000
C   999.68000000  19.94634110  1.50000000
C   999.68000000  22.40585325  1.50000000
C   999.68000000  24.86536539  1.50000000
C   1001.10000000  2.72975607  1.50000000
C   1001.10000000  5.18926822  1.50000000
C   1001.10000000  7.64878037  1.50000000
C   1001.10000000  10.10829251  1.50000000
C   1001.10000000  12.56780466  1.50000000
C   1001.10000000  15.02731681  1.50000000
C   1001.10000000  17.48682895  1.50000000
C   1001.10000000  19.94634110  1.50000000
C   1001.10000000  22.40585325  1.50000000
C   1001.10000000  24.86536539  1.50000000
C   1001.81000000  1.50000000  1.50000000
C   1001.81000000  3.95951215  1.50000000
C   1001.81000000  6.41902429  1.50000000
C   1001.81000000  8.87853644  1.50000000
C   1001.81000000  11.33804859  1.50000000
C   1001.81000000  13.79756073  1.50000000
C   1001.81000000  16.25707288  1.50000000
C   1001.81000000  18.71658503  1.50000000
C   1001.81000000  21.17609717  1.50000000
C   1001.81000000  23.63560932  1.50000000
C   1001.81000000  26.09512147  1.50000000
C   1003.23000000  1.50000000  1.50000000
C   1003.23000000  3.95951215  1.50000000
C   1003.23000000  6.41902429  1.50000000
C   1003.23000000  8.87853644  1.50000000
C   1003.23000000  11.33804859  1.50000000
C   1003.23000000  13.79756073  1.50000000
C   1003.23000000  16.25707288  1.50000000
C   1003.23000000  18.71658503  1.50000000
C   1003.23000000  21.17609717  1.50000000
C   1003.23000000  23.63560932  1.50000000
C   1003.23000000  26.09512147  1.50000000
C   1003.94000000  2.72975607  1.50000000
C   1003.94000000  5.18926822  1.50000000
C   1003.94000000  7.64878037  1.50000000
C   1003.94000000  10.10829251  1.50000000
C   1003.94000000  12.56780466  1.50000000
C   1003.94000000  15.02731681  1.50000000
C   1003.94000000  17.48682895  1.50000000
C   1003.94000000  19.94634110  1.50000000
C   1003.94000000  22.40585325  1.50000000
C   1003.94000000  24.86536539  1.50000000
C   1005.36000000  2.72975607  1.50000000
C   1005.36000000  5.18926822  1.50000000
C   1005.36000000  7.64878037  1.50000000
C   1005.36000000  10.10829251  1.50000000
C   1005.36000000  12.56780466  1.50000000
C   1005.36000000  15.02731681  1.50000000
C   1005.36000000  17.48682895  1.50000000
C   1005.36000000  19.94634110  1.50000000
C   1005.36000000  22.40585325  1.50000000
C   1005.36000000  24.86536539  1.50000000
C   1006.07000000  1.50000000  1.50000000
C   1006.07000000  3.95951215  1.50000000
C   1006.07000000  6.41902429  1.50000000
C   1006.07000000  8.87853644  1.50000000
C   1006.07000000  11.33804859  1.50000000
C   1006.07000000  13.79756073  1.50000000
C   1006.07000000  16.25707288  1.50000000
C   1006.07000000  18.71658503  1.50000000
C   1006.07000000  21.17609717  1.50000000
C   1006.07000000  23.63560932  1.50000000
C   1006.07000000  26.09512147  1.50000000
C   1007.49000000  1.50000000  1.50000000
C   1007.49000000  3.95951215  1.50000000
C   1007.49000000  6.41902429  1.50000000
C   1007.49000000  8.87853644  1.50000000
C   1007.49000000  11.33804859  1.50000000
C   1007.49000000  13.79756073  1.50000000
C   1007.49000000  16.25707288  1.50000000
C   1007.49000000  18.71658503  1.50000000
C   1007.49000000  21.17609717  1.50000000
C   1007.49000000  23.63560932  1.50000000
C   1007.49000000  26.09512147  1.50000000
C   1008.20000000  2.72975607  1.50000000
C   1008.20000000  5.18926822  1.50000000
C   1008.20000000  7.64878037  1.50000000
C   1008.20000000  10.10829251  1.50000000
C   1008.20000000  12.56780466  1.50000000
C   1008.20000000  15.02731681  1.50000000
C   1008.20000000  17.48682895  1.50000000
C   1008.20000000  19.94634110  1.50000000
C   1008.20000000  22.40585325  1.50000000
C   1008.20000000  24.86536539  1.50000000
C   1009.62000000  2.72975607  1.50000000
C   1009.62000000  5.18926822  1.50000000
C   1009.62000000  7.64878037  1.50000000
C   1009.62000000  10.10829251  1.50000000
C   1009.62000000  12.56780466  1.50000000
C   1009.62000000  15.02731681  1.50000000
C   1009.62000000  17.48682895  1.50000000
C   1009.62000000  19.94634110  1.50000000
C   1009.62000000  22.40585325  1.50000000
C   1009.62000000  24.86536539  1.50000000
C   1010.33000000  1.50000000  1.50000000
C   1010.33000000  3.95951215  1.50000000
C   1010.33000000  6.41902429  1.50000000
C   1010.33000000  8.87853644  1.50000000
C   1010.33000000  11.33804859  1.50000000
C   1010.33000000  13.79756073  1.50000000
C   1010.33000000  16.25707288  1.50000000
C   1010.33000000  18.71658503  1.50000000
C   1010.33000000  21.17609717  1.50000000
C   1010.33000000  23.63560932  1.50000000
C   1010.33000000  26.09512147  1.50000000
C   1011.75000000  1.50000000  1.50000000
C   1011.75000000  3.95951215  1.50000000
C   1011.75000000  6.41902429  1.50000000
C   1011.75000000  8.87853644  1.50000000
C   1011.75000000  11.33804859  1.50000000
C   1011.75000000  13.79756073  1.50000000
C   1011.75000000  16.25707288  1.50000000
C   1011.75000000  18.71658503  1.50000000
C   1011.75000000  21.17609717  1.50000000
C   1011.75000000  23.63560932  1.50000000
C   1011.75000000  26.09512147  1.50000000
C   1012.46000000  2.72975607  1.50000000
C   1012.46000000  5.18926822  1.50000000
C   1012.46000000  7.64878037  1.50000000
C   1012.46000000  10.10829251  1.50000000
C   1012.46000000  12.56780466  1.50000000
C   1012.46000000  15.02731681  1.50000000
C   1012.46000000  17.48682895  1.50000000
C   1012.46000000  19.94634110  1.50000000
C   1012.46000000  22.40585325  1.50000000
C   1012.46000000  24.86536539  1.50000000
C   1013.88000000  2.72975607  1.50000000
C   1013.88000000  5.18926822  1.50000000
C   1013.88000000  7.64878037  1.50000000
C   1013.88000000  10.10829251  1.50000000
C   1013.88000000  12.56780466  1.50000000
C   1013.88000000  15.02731681  1.50000000
C   1013.88000000  17.48682895  1.50000000
C   1013.88000000  19.94634110  1.50000000
C   1013.88000000  22.40585325  1.50000000
C   1013.88000000  24.86536539  1.50000000
C   1014.59000000  1.50000000  1.50000000
C   1014.59000000  3.95951215  1.50000000
C   1014.59000000  6.41902429  1.50000000
C   1014.59000000  8.87853644  1.50000000
C   1014.59000000  11.33804859  1.50000000
C   1014.59000000  13.79756073  1.50000000
C   1014.59000000  16.25707288  1.50000000
C   1014.59000000  18.71658503  1.50000000
C   1014.59000000  21.17609717  1.50000000
C   1014.59000000  23.63560932  1.50000000
C   1014.59000000  26.09512147  1.50000000
C   1016.01000000  1.50000000  1.50000000
C   1016.01000000  3.95951215  1.50000000
C   1016.01000000  6.41902429  1.50000000
C   1016.01000000  8.87853644  1.50000000
C   1016.01000000  11.33804859  1.50000000
C   1016.01000000  13.79756073  1.50000000
C   1016.01000000  16.25707288  1.50000000
C   1016.01000000  18.71658503  1.50000000
C   1016.01000000  21.17609717  1.50000000
C   1016.01000000  23.63560932  1.50000000
C   1016.01000000  26.09512147  1.50000000
C   1016.72000000  2.72975607  1.50000000
C   1016.72000000  5.18926822  1.50000000
C   1016.72000000  7.64878037  1.50000000
C   1016.72000000  10.10829251  1.50000000
C   1016.72000000  12.56780466  1.50000000
C   1016.72000000  15.02731681  1.50000000
C   1016.72000000  17.48682895  1.50000000
C   1016.72000000  19.94634110  1.50000000
C   1016.72000000  22.40585325  1.50000000
C   1016.72000000  24.86536539  1.50000000
C   1018.14000000  2.72975607  1.50000000
C   1018.14000000  5.18926822  1.50000000
C   1018.14000000  7.64878037  1.50000000
C   1018.14000000  10.10829251  1.50000000
C   1018.14000000  12.56780466  1.50000000
C   1018.14000000  15.02731681  1.50000000
C   1018.14000000  17.48682895  1.50000000
C   1018.14000000  19.94634110  1.50000000
C   1018.14000000  22.40585325  1.50000000
C   1018.14000000  24.86536539  1.50000000
C   1018.85000000  1.50000000  1.50000000
C   1018.85000000  3.95951215  1.50000000
C   1018.85000000  6.41902429  1.50000000
C   1018.85000000  8.87853644  1.50000000
C   1018.85000000  11.33804859  1.50000000
C   1018.85000000  13.79756073  1.50000000
C   1018.85000000  16.25707288  1.50000000
C   1018.85000000  18.71658503  1.50000000
C   1018.85000000  21.17609717  1.50000000
C   1018.85000000  23.63560932  1.50000000
C   1018.85000000  26.09512147  1.50000000
C   1020.27000000  1.50000000  1.50000000
C   1020.27000000  3.95951215  1.50000000
C   1020.27000000  6.41902429  1.50000000
C   1020.27000000  8.87853644  1.50000000
C   1020.27000000  11.33804859  1.50000000
C   1020.27000000  13.79756073  1.50000000
C   1020.27000000  16.25707288  1.50000000
C   1020.27000000  18.71658503  1.50000000
C   1020.27000000  21.17609717  1.50000000
C   1020.27000000  23.63560932  1.50000000
C   1020.27000000  26.09512147  1.50000000
C   1020.98000000  2.72975607  1.50000000
C   1020.98000000  5.18926822  1.50000000
C   1020.98000000  7.64878037  1.50000000
C   1020.98000000  10.10829251  1.50000000
C   1020.98000000  12.56780466  1.50000000
C   1020.98000000  15.02731681  1.50000000
C   1020.98000000  17.48682895  1.50000000
C   1020.98000000  19.94634110  1.50000000
C   1020.98000000  22.40585325  1.50000000
C   1020.98000000  24.86536539  1.50000000
C   1022.40000000  2.72975607  1.50000000
C   1022.40000000  5.18926822  1.50000000
C   1022.40000000  7.64878037  1.50000000
C   1022.40000000  10.10829251  1.50000000
C   1022.40000000  12.56780466  1.50000000
C   1022.40000000  15.02731681  1.50000000
C   1022.40000000  17.48682895  1.50000000
C   1022.40000000  19.94634110  1.50000000
C   1022.40000000  22.40585325  1.50000000
C   1022.40000000  24.86536539  1.50000000
C   1023.11000000  1.50000000  1.50000000
C   1023.11000000  3.95951215  1.50000000
C   1023.11000000  6.41902429  1.50000000
C   1023.11000000  8.87853644  1.50000000
C   1023.11000000  11.33804859  1.50000000
C   1023.11000000  13.79756073  1.50000000
C   1023.11000000  16.25707288  1.50000000
C   1023.11000000  18.71658503  1.50000000
C   1023.11000000  21.17609717  1.50000000
C   1023.11000000  23.63560932  1.50000000
C   1023.11000000  26.09512147  1.50000000
C   1024.53000000  1.50000000  1.50000000
C   1024.53000000  3.95951215  1.50000000
C   1024.53000000  6.41902429  1.50000000
C   1024.53000000  8.87853644  1.50000000
C   1024.53000000  11.33804859  1.50000000
C   1024.53000000  13.79756073  1.50000000
C   1024.53000000  16.25707288  1.50000000
C   1024.53000000  18.71658503  1.50000000
C   1024.53000000  21.17609717  1.50000000
C   1024.53000000  23.63560932  1.50000000
C   1024.53000000  26.09512147  1.50000000
C   1025.24000000  2.72975607  1.50000000
C   1025.24000000  5.18926822  1.50000000
C   1025.24000000  7.64878037  1.50000000
C   1025.24000000  10.10829251  1.50000000
C   1025.24000000  12.56780466  1.50000000
C   1025.24000000  15.02731681  1.50000000
C   1025.24000000  17.48682895  1.50000000
C   1025.24000000  19.94634110  1.50000000
C   1025.24000000  22.40585325  1.50000000
C   1025.24000000  24.86536539  1.50000000
C   1026.66000000  2.72975607  1.50000000
C   1026.66000000  5.18926822  1.50000000
C   1026.66000000  7.64878037  1.50000000
C   1026.66000000  10.10829251  1.50000000
C   1026.66000000  12.56780466  1.50000000
C   1026.66000000  15.02731681  1.50000000
C   1026.66000000  17.48682895  1.50000000
C   1026.66000000  19.94634110  1.50000000
C   1026.66000000  22.40585325  1.50000000
C   1026.66000000  24.86536539  1.50000000
C   1027.37000000  1.50000000  1.50000000
C   1027.37000000  3.95951215  1.50000000
C   1027.37000000  6.41902429  1.50000000
C   1027.37000000  8.87853644  1.50000000
C   1027.37000000  11.33804859  1.50000000
C   1027.37000000  13.79756073  1.50000000
C   1027.37000000  16.25707288  1.50000000
C   1027.37000000  18.71658503  1.50000000
C   1027.37000000  21.17609717  1.50000000
C   1027.37000000  23.63560932  1.50000000
C   1027.37000000  26.09512147  1.50000000
C   1028.79000000  1.50000000  1.50000000
C   1028.79000000  3.95951215  1.50000000
C   1028.79000000  6.41902429  1.50000000
C   1028.79000000  8.87853644  1.50000000
C   1028.79000000  11.33804859  1.50000000
C   1028.79000000  13.79756073  1.50000000
C   1028.79000000  16.25707288  1.50000000
C   1028.79000000  18.71658503  1.50000000
C   1028.79000000  21.17609717  1.50000000
C   1028.79000000  23.63560932  1.50000000
C   1028.79000000  26.09512147  1.50000000
C   1029.50000000  2.72975607  1.50000000
C   1029.50000000  5.18926822  1.50000000
C   1029.50000000  7.64878037  1.50000000
C   1029.50000000  10.10829251  1.50000000
C   1029.50000000  12.56780466  1.50000000
C   1029.50000000  15.02731681  1.50000000
C   1029.50000000  17.48682895  1.50000000
C   1029.50000000  19.94634110  1.50000000
C   1029.50000000  22.40585325  1.50000000
C   1029.50000000  24.86536539  1.50000000
C   1030.92000000  2.72975607  1.50000000
C   1030.92000000  5.18926822  1.50000000
C   1030.92000000  7.64878037  1.50000000
C   1030.92000000  10.10829251  1.50000000
C   1030.92000000  12.56780466  1.50000000
C   1030.92000000  15.02731681  1.50000000
C   1030.92000000  17.48682895  1.50000000
C   1030.92000000  19.94634110  1.50000000
C   1030.92000000  22.40585325  1.50000000
C   1030.92000000  24.86536539  1.50000000
C   1031.63000000  1.50000000  1.50000000
C   1031.63000000  3.95951215  1.50000000
C   1031.63000000  6.41902429  1.50000000
C   1031.63000000  8.87853644  1.50000000
C   1031.63000000  11.33804859  1.50000000
C   1031.63000000  13.79756073  1.50000000
C   1031.63000000  16.25707288  1.50000000
C   1031.63000000  18.71658503  1.50000000
C   1031.63000000  21.17609717  1.50000000
C   1031.63000000  23.63560932  1.50000000
C   1031.63000000  26.09512147  1.50000000
C   1033.05000000  1.50000000  1.50000000
C   1033.05000000  3.95951215  1.50000000
C   1033.05000000  6.41902429  1.50000000
C   1033.05000000  8.87853644  1.50000000
C   1033.05000000  11.33804859  1.50000000
C   1033.05000000  13.79756073  1.50000000
C   1033.05000000  16.25707288  1.50000000
C   1033.05000000  18.71658503  1.50000000
C   1033.05000000  21.17609717  1.50000000
C   1033.05000000  23.63560932  1.50000000
C   1033.05000000  26.09512147  1.50000000
C   1033.76000000  2.72975607  1.50000000
C   1033.76000000  5.18926822  1.50000000
C   1033.76000000  7.64878037  1.50000000
C   1033.76000000  10.10829251  1.50000000
C   1033.76000000  12.56780466  1.50000000
C   1033.76000000  15.02731681  1.50000000
C   1033.76000000  17.48682895  1.50000000
C   1033.76000000  19.94634110  1.50000000
C   1033.76000000  22.40585325  1.50000000
C   1033.76000000  24.86536539  1.50000000
C   1035.18000000  2.72975607  1.50000000
C   1035.18000000  5.18926822  1.50000000
C   1035.18000000  7.64878037  1.50000000
C   1035.18000000  10.10829251  1.50000000
C   1035.18000000  12.56780466  1.50000000
C   1035.18000000  15.02731681  1.50000000
C   1035.18000000  17.48682895  1.50000000
C   1035.18000000  19.94634110  1.50000000
C   1035.18000000  22.40585325  1.50000000
C   1035.18000000  24.86536539  1.50000000
C   1035.89000000  1.50000000  1.50000000
C   1035.89000000  3.95951215  1.50000000
C   1035.89000000  6.41902429  1.50000000
C   1035.89000000  8.87853644  1.50000000
C   1035.89000000  11.33804859  1.50000000
C   1035.89000000  13.79756073  1.50000000
C   1035.89000000  16.25707288  1.50000000
C   1035.89000000  18.71658503  1.50000000
C   1035.89000000  21.17609717  1.50000000
C   1035.89000000  23.63560932  1.50000000
C   1035.89000000  26.09512147  1.50000000
C   1037.31000000  1.50000000  1.50000000
C   1037.31000000  3.95951215  1.50000000
C   1037.31000000  6.41902429  1.50000000
C   1037.31000000  8.87853644  1.50000000
C   1037.31000000  11.33804859  1.50000000
C   1037.31000000  13.79756073  1.50000000
C   1037.31000000  16.25707288  1.50000000
C   1037.31000000  18.71658503  1.50000000
C   1037.31000000  21.17609717  1.50000000
C   1037.31000000  23.63560932  1.50000000
C   1037.31000000  26.09512147  1.50000000
C   1038.02000000  2.72975607  1.50000000
C   1038.02000000  5.18926822  1.50000000
C   1038.02000000  7.64878037  1.50000000
C   1038.02000000  10.10829251  1.50000000
C   1038.02000000  12.56780466  1.50000000
C   1038.02000000  15.02731681  1.50000000
C   1038.02000000  17.48682895  1.50000000
C   1038.02000000  19.94634110  1.50000000
C   1038.02000000  22.40585325  1.50000000
C   1038.02000000  24.86536539  1.50000000
C   1039.44000000  2.72975607  1.50000000
C   1039.44000000  5.18926822  1.50000000
C   1039.44000000  7.64878037  1.50000000
C   1039.44000000  10.10829251  1.50000000
C   1039.44000000  12.56780466  1.50000000
C   1039.44000000  15.02731681  1.50000000
C   1039.44000000  17.48682895  1.50000000
C   1039.44000000  19.94634110  1.50000000
C   1039.44000000  22.40585325  1.50000000
C   1039.44000000  24.86536539  1.50000000
C   1040.15000000  1.50000000  1.50000000
C   1040.15000000  3.95951215  1.50000000
C   1040.15000000  6.41902429  1.50000000
C   1040.15000000  8.87853644  1.50000000
C   1040.15000000  11.33804859  1.50000000
C   1040.15000000  13.79756073  1.50000000
C   1040.15000000  16.25707288  1.50000000
C   1040.15000000  18.71658503  1.50000000
C   1040.15000000  21.17609717  1.50000000
C   1040.15000000  23.63560932  1.50000000
C   1040.15000000  26.09512147  1.50000000
C   1041.57000000  1.50000000  1.50000000
C   1041.57000000  3.95951215  1.50000000
C   1041.57000000  6.41902429  1.50000000
C   1041.57000000  8.87853644  1.50000000
C   1041.57000000  11.33804859  1.50000000
C   1041.57000000  13.79756073  1.50000000
C   1041.57000000  16.25707288  1.50000000
C   1041.57000000  18.71658503  1.50000000
C   1041.57000000  21.17609717  1.50000000
C   1041.57000000  23.63560932  1.50000000
C   1041.57000000  26.09512147  1.50000000
C   1042.28000000  2.72975607  1.50000000
C   1042.28000000  5.18926822  1.50000000
C   1042.28000000  7.64878037  1.50000000
C   1042.28000000  10.10829251  1.50000000
C   1042.28000000  12.56780466  1.50000000
C   1042.28000000  15.02731681  1.50000000
C   1042.28000000  17.48682895  1.50000000
C   1042.28000000  19.94634110  1.50000000
C   1042.28000000  22.40585325  1.50000000
C   1042.28000000  24.86536539  1.50000000
C   1043.70000000  2.72975607  1.50000000
C   1043.70000000  5.18926822  1.50000000
C   1043.70000000  7.64878037  1.50000000
C   1043.70000000  10.10829251  1.50000000
C   1043.70000000  12.56780466  1.50000000
C   1043.70000000  15.02731681  1.50000000
C   1043.70000000  17.48682895  1.50000000
C   1043.70000000  19.94634110  1.50000000
C   1043.70000000  22.40585325  1.50000000
C   1043.70000000  24.86536539  1.50000000
C   1044.41000000  1.50000000  1.50000000
C   1044.41000000  3.95951215  1.50000000
C   1044.41000000  6.41902429  1.50000000
C   1044.41000000  8.87853644  1.50000000
C   1044.41000000  11.33804859  1.50000000
C   1044.41000000  13.79756073  1.50000000
C   1044.41000000  16.25707288  1.50000000
C   1044.41000000  18.71658503  1.50000000
C   1044.41000000  21.17609717  1.50000000
C   1044.41000000  23.63560932  1.50000000
C   1044.41000000  26.09512147  1.50000000
C   1045.83000000  1.50000000  1.50000000
C   1045.83000000  3.95951215  1.50000000
C   1045.83000000  6.41902429  1.50000000
C   1045.83000000  8.87853644  1.50000000
C   1045.83000000  11.33804859  1.50000000
C   1045.83000000  13.79756073  1.50000000
C   1045.83000000  16.25707288  1.50000000
C   1045.83000000  18.71658503  1.50000000
C   1045.83000000  21.17609717  1.50000000
C   1045.83000000  23.63560932  1.50000000
C   1045.83000000  26.09512147  1.50000000
C   1046.54000000  2.72975607  1.50000000
C   1046.54000000  5.18926822  1.50000000
C   1046.54000000  7.64878037  1.50000000
C   1046.54000000  10.10829251  1.50000000
C   1046.54000000  12.56780466  1.50000000
C   1046.54000000  15.02731681  1.50000000
C   1046.54000000  17.48682895  1.50000000
C   1046.54000000  19.94634110  1.50000000
C   1046.54000000  22.40585325  1.50000000
C   1046.54000000  24.86536539  1.50000000
C   1047.96000000  2.72975607  1.50000000
C   1047.96000000  5.18926822  1.50000000
C   1047.96000000  7.64878037  1.50000000
C   1047.96000000  10.10829251  1.50000000
C   1047.96000000  12.56780466  1.50000000
C   1047.96000000  15.02731681  1.50000000
C   1047.96000000  17.48682895  1.50000000
C   1047.96000000  19.94634110  1.50000000
C   1047.96000000  22.40585325  1.50000000
C   1047.96000000  24.86536539  1.50000000
C   1048.67000000  1.50000000  1.50000000
C   1048.67000000  3.95951215  1.50000000
C   1048.67000000  6.41902429  1.50000000
C   1048.67000000  8.87853644  1.50000000
C   1048.67000000  11.33804859  1.50000000
C   1048.67000000  13.79756073  1.50000000
C   1048.67000000  16.25707288  1.50000000
C   1048.67000000  18.71658503  1.50000000
C   1048.67000000  21.17609717  1.50000000
C   1048.67000000  23.63560932  1.50000000
C   1048.67000000  26.09512147  1.50000000
C   1050.09000000  1.50000000  1.50000000
C   1050.09000000  3.95951215  1.50000000
C   1050.09000000  6.41902429  1.50000000
C   1050.09000000  8.87853644  1.50000000
C   1050.09000000  11.33804859  1.50000000
C   1050.09000000  13.79756073  1.50000000
C   1050.09000000  16.25707288  1.50000000
C   1050.09000000  18.71658503  1.50000000
C   1050.09000000  21.17609717  1.50000000
C   1050.09000000  23.63560932  1.50000000
C   1050.09000000  26.09512147  1.50000000
C   1050.80000000  2.72975607  1.50000000
C   1050.80000000  5.18926822  1.50000000
C   1050.80000000  7.64878037  1.50000000
C   1050.80000000  10.10829251  1.50000000
C   1050.80000000  12.56780466  1.50000000
C   1050.80000000  15.02731681  1.50000000
C   1050.80000000  17.48682895  1.50000000
C   1050.80000000  19.94634110  1.50000000
C   1050.80000000  22.40585325  1.50000000
C   1050.80000000  24.86536539  1.50000000
C   1052.22000000  2.72975607  1.50000000
C   1052.22000000  5.18926822  1.50000000
C   1052.22000000  7.64878037  1.50000000
C   1052.22000000  10.10829251  1.50000000
C   1052.22000000  12.56780466  1.50000000
C   1052.22000000  15.02731681  1.50000000
C   1052.22000000  17.48682895  1.50000000
C   1052.22000000  19.94634110  1.50000000
C   1052.22000000  22.40585325  1.50000000
C   1052.22000000  24.86536539  1.50000000
C   1052.93000000  1.50000000  1.50000000
C   1052.93000000  3.95951215  1.50000000
C   1052.93000000  6.41902429  1.50000000
C   1052.93000000  8.87853644  1.50000000
C   1052.93000000  11.33804859  1.50000000
C   1052.93000000  13.79756073  1.50000000
C   1052.93000000  16.25707288  1.50000000
C   1052.93000000  18.71658503  1.50000000
C   1052.93000000  21.17609717  1.50000000
C   1052.93000000  23.63560932  1.50000000
C   1052.93000000  26.09512147  1.50000000
C   1054.35000000  1.50000000  1.50000000
C   1054.35000000  3.95951215  1.50000000
C   1054.35000000  6.41902429  1.50000000
C   1054.35000000  8.87853644  1.50000000
C   1054.35000000  11.33804859  1.50000000
C   1054.35000000  13.79756073  1.50000000
C   1054.35000000  16.25707288  1.50000000
C   1054.35000000  18.71658503  1.50000000
C   1054.35000000  21.17609717  1.50000000
C   1054.35000000  23.63560932  1.50000000
C   1054.35000000  26.09512147  1.50000000
C   1055.06000000  2.72975607  1.50000000
C   1055.06000000  5.18926822  1.50000000
C   1055.06000000  7.64878037  1.50000000
C   1055.06000000  10.10829251  1.50000000
C   1055.06000000  12.56780466  1.50000000
C   1055.06000000  15.02731681  1.50000000
C   1055.06000000  17.48682895  1.50000000
C   1055.06000000  19.94634110  1.50000000
C   1055.06000000  22.40585325  1.50000000
C   1055.06000000  24.86536539  1.50000000
C   1056.48000000  2.72975607  1.50000000
C   1056.48000000  5.18926822  1.50000000
C   1056.48000000  7.64878037  1.50000000
C   1056.48000000  10.10829251  1.50000000
C   1056.48000000  12.56780466  1.50000000
C   1056.48000000  15.02731681  1.50000000
C   1056.48000000  17.48682895  1.50000000
C   1056.48000000  19.94634110  1.50000000
C   1056.48000000  22.40585325  1.50000000
C   1056.48000000  24.86536539  1.50000000
C   1057.19000000  1.50000000  1.50000000
C   1057.19000000  3.95951215  1.50000000
C   1057.19000000  6.41902429  1.50000000
C   1057.19000000  8.87853644  1.50000000
C   1057.19000000  11.33804859  1.50000000
C   1057.19000000  13.79756073  1.50000000
C   1057.19000000  16.25707288  1.50000000
C   1057.19000000  18.71658503  1.50000000
C   1057.19000000  21.17609717  1.50000000
C   1057.19000000  23.63560932  1.50000000
C   1057.19000000  26.09512147  1.50000000
C   1058.61000000  1.50000000  1.50000000
C   1058.61000000  3.95951215  1.50000000
C   1058.61000000  6.41902429  1.50000000
C   1058.61000000  8.87853644  1.50000000
C   1058.61000000  11.33804859  1.50000000
C   1058.61000000  13.79756073  1.50000000
C   1058.61000000  16.25707288  1.50000000
C   1058.61000000  18.71658503  1.50000000
C   1058.61000000  21.17609717  1.50000000
C   1058.61000000  23.63560932  1.50000000
C   1058.61000000  26.09512147  1.50000000
C   1059.32000000  2.72975607  1.50000000
C   1059.32000000  5.18926822  1.50000000
C   1059.32000000  7.64878037  1.50000000
C   1059.32000000  10.10829251  1.50000000
C   1059.32000000  12.56780466  1.50000000
C   1059.32000000  15.02731681  1.50000000
C   1059.32000000  17.48682895  1.50000000
C   1059.32000000  19.94634110  1.50000000
C   1059.32000000  22.40585325  1.50000000
C   1059.32000000  24.86536539  1.50000000
C   1060.74000000  2.72975607  1.50000000
C   1060.74000000  5.18926822  1.50000000
C   1060.74000000  7.64878037  1.50000000
C   1060.74000000  10.10829251  1.50000000
C   1060.74000000  12.56780466  1.50000000
C   1060.74000000  15.02731681  1.50000000
C   1060.74000000  17.48682895  1.50000000
C   1060.74000000  19.94634110  1.50000000
C   1060.74000000  22.40585325  1.50000000
C   1060.74000000  24.86536539  1.50000000
C   1061.45000000  1.50000000  1.50000000
C   1061.45000000  3.95951215  1.50000000
C   1061.45000000  6.41902429  1.50000000
C   1061.45000000  8.87853644  1.50000000
C   1061.45000000  11.33804859  1.50000000
C   1061.45000000  13.79756073  1.50000000
C   1061.45000000  16.25707288  1.50000000
C   1061.45000000  18.71658503  1.50000000
C   1061.45000000  21.17609717  1.50000000
C   1061.45000000  23.63560932  1.50000000
C   1061.45000000  26.09512147  1.50000000
C   1062.87000000  1.50000000  1.50000000
C   1062.87000000  3.95951215  1.50000000
C   1062.87000000  6.41902429  1.50000000
C   1062.87000000  8.87853644  1.50000000
C   1062.87000000  11.33804859  1.50000000
C   1062.87000000  13.79756073  1.50000000
C   1062.87000000  16.25707288  1.50000000
C   1062.87000000  18.71658503  1.50000000
C   1062.87000000  21.17609717  1.50000000
C   1062.87000000  23.63560932  1.50000000
C   1062.87000000  26.09512147  1.50000000
C   1063.58000000  2.72975607  1.50000000
C   1063.58000000  5.18926822  1.50000000
C   1063.58000000  7.64878037  1.50000000
C   1063.58000000  10.10829251  1.50000000
C   1063.58000000  12.56780466  1.50000000
C   1063.58000000  15.02731681  1.50000000
C   1063.58000000  17.48682895  1.50000000
C   1063.58000000  19.94634110  1.50000000
C   1063.58000000  22.40585325  1.50000000
C   1063.58000000  24.86536539  1.50000000
C   1065.00000000  2.72975607  1.50000000
C   1065.00000000  5.18926822  1.50000000
C   1065.00000000  7.64878037  1.50000000
C   1065.00000000  10.10829251  1.50000000
C   1065.00000000  12.56780466  1.50000000
C   1065.00000000  15.02731681  1.50000000
C   1065.00000000  17.48682895  1.50000000
C   1065.00000000  19.94634110  1.50000000
C   1065.00000000  22.40585325  1.50000000
C   1065.00000000  24.86536539  1.50000000
C   1065.71000000  1.50000000  1.50000000
C   1065.71000000  3.95951215  1.50000000
C   1065.71000000  6.41902429  1.50000000
C   1065.71000000  8.87853644  1.50000000
C   1065.71000000  11.33804859  1.50000000
C   1065.71000000  13.79756073  1.50000000
C   1065.71000000  16.25707288  1.50000000
C   1065.71000000  18.71658503  1.50000000
C   1065.71000000  21.17609717  1.50000000
C   1065.71000000  23.63560932  1.50000000
C   1065.71000000  26.09512147  1.50000000
C   1067.13000000  1.50000000  1.50000000
C   1067.13000000  3.95951215  1.50000000
C   1067.13000000  6.41902429  1.50000000
C   1067.13000000  8.87853644  1.50000000
C   1067.13000000  11.33804859  1.50000000
C   1067.13000000  13.79756073  1.50000000
C   1067.13000000  16.25707288  1.50000000
C   1067.13000000  18.71658503  1.50000000
C   1067.13000000  21.17609717  1.50000000
C   1067.13000000  23.63560932  1.50000000
C   1067.13000000  26.09512147  1.50000000
C   1067.84000000  2.72975607  1.50000000
C   1067.84000000  5.18926822  1.50000000
C   1067.84000000  7.64878037  1.50000000
C   1067.84000000  10.10829251  1.50000000
C   1067.84000000  12.56780466  1.50000000
C   1067.84000000  15.02731681  1.50000000
C   1067.84000000  17.48682895  1.50000000
C   1067.84000000  19.94634110  1.50000000
C   1067.84000000  22.40585325  1.50000000
C   1067.84000000  24.86536539  1.50000000
C   1069.26000000  2.72975607  1.50000000
C   1069.26000000  5.18926822  1.50000000
C   1069.26000000  7.64878037  1.50000000
C   1069.26000000  10.10829251  1.50000000
C   1069.26000000  12.56780466  1.50000000
C   1069.26000000  15.02731681  1.50000000
C   1069.26000000  17.48682895  1.50000000
C   1069.26000000  19.94634110  1.50000000
C   1069.26000000  22.40585325  1.50000000
C   1069.26000000  24.86536539  1.50000000
C   1069.97000000  1.50000000  1.50000000
C   1069.97000000  3.95951215  1.50000000
C   1069.97000000  6.41902429  1.50000000
C   1069.97000000  8.87853644  1.50000000
C   1069.97000000  11.33804859  1.50000000
C   1069.97000000  13.79756073  1.50000000
C   1069.97000000  16.25707288  1.50000000
C   1069.97000000  18.71658503  1.50000000
C   1069.97000000  21.17609717  1.50000000
C   1069.97000000  23.63560932  1.50000000
C   1069.97000000  26.09512147  1.50000000
C   1071.39000000  1.50000000  1.50000000
C   1071.39000000  3.95951215  1.50000000
C   1071.39000000  6.41902429  1.50000000
C   1071.39000000  8.87853644  1.50000000
C   1071.39000000  11.33804859  1.50000000
C   1071.39000000  13.79756073  1.50000000
C   1071.39000000  16.25707288  1.50000000
C   1071.39000000  18.71658503  1.50000000
C   1071.39000000  21.17609717  1.50000000
C   1071.39000000  23.63560932  1.50000000
C   1071.39000000  26.09512147  1.50000000
C   1072.10000000  2.72975607  1.50000000
C   1072.10000000  5.18926822  1.50000000
C   1072.10000000  7.64878037  1.50000000
C   1072.10000000  10.10829251  1.50000000
C   1072.10000000  12.56780466  1.50000000
C   1072.10000000  15.02731681  1.50000000
C   1072.10000000  17.48682895  1.50000000
C   1072.10000000  19.94634110  1.50000000
C   1072.10000000  22.40585325  1.50000000
C   1072.10000000  24.86536539  1.50000000
C   1073.52000000  2.72975607  1.50000000
C   1073.52000000  5.18926822  1.50000000
C   1073.52000000  7.64878037  1.50000000
C   1073.52000000  10.10829251  1.50000000
C   1073.52000000  12.56780466  1.50000000
C   1073.52000000  15.02731681  1.50000000
C   1073.52000000  17.48682895  1.50000000
C   1073.52000000  19.94634110  1.50000000
C   1073.52000000  22.40585325  1.50000000
C   1073.52000000  24.86536539  1.50000000
C   1074.23000000  1.50000000  1.50000000
C   1074.23000000  3.95951215  1.50000000
C   1074.23000000  6.41902429  1.50000000
C   1074.23000000  8.87853644  1.50000000
C   1074.23000000  11.33804859  1.50000000
C   1074.23000000  13.79756073  1.50000000
C   1074.23000000  16.25707288  1.50000000
C   1074.23000000  18.71658503  1.50000000
C   1074.23000000  21.17609717  1.50000000
C   1074.23000000  23.63560932  1.50000000
C   1074.23000000  26.09512147  1.50000000
C   1075.65000000  1.50000000  1.50000000
C   1075.65000000  3.95951215  1.50000000
C   1075.65000000  6.41902429  1.50000000
C   1075.65000000  8.87853644  1.50000000
C   1075.65000000  11.33804859  1.50000000
C   1075.65000000  13.79756073  1.50000000
C   1075.65000000  16.25707288  1.50000000
C   1075.65000000  18.71658503  1.50000000
C   1075.65000000  21.17609717  1.50000000
C   1075.65000000  23.63560932  1.50000000
C   1075.65000000  26.09512147  1.50000000
C   1076.36000000  2.72975607  1.50000000
C   1076.36000000  5.18926822  1.50000000
C   1076.36000000  7.64878037  1.50000000
C   1076.36000000  10.10829251  1.50000000
C   1076.36000000  12.56780466  1.50000000
C   1076.36000000  15.02731681  1.50000000
C   1076.36000000  17.48682895  1.50000000
C   1076.36000000  19.94634110  1.50000000
C   1076.36000000  22.40585325  1.50000000
C   1076.36000000  24.86536539  1.50000000
C   1077.78000000  2.72975607  1.50000000
C   1077.78000000  5.18926822  1.50000000
C   1077.78000000  7.64878037  1.50000000
C   1077.78000000  10.10829251  1.50000000
C   1077.78000000  12.56780466  1.50000000
C   1077.78000000  15.02731681  1.50000000
C   1077.78000000  17.48682895  1.50000000
C   1077.78000000  19.94634110  1.50000000
C   1077.78000000  22.40585325  1.50000000
C   1077.78000000  24.86536539  1.50000000
C   1078.49000000  1.50000000  1.50000000
C   1078.49000000  3.95951215  1.50000000
C   1078.49000000  6.41902429  1.50000000
C   1078.49000000  8.87853644  1.50000000
C   1078.49000000  11.33804859  1.50000000
C   1078.49000000  13.79756073  1.50000000
C   1078.49000000  16.25707288  1.50000000
C   1078.49000000  18.71658503  1.50000000
C   1078.49000000  21.17609717  1.50000000
C   1078.49000000  23.63560932  1.50000000
C   1078.49000000  26.09512147  1.50000000
C   1079.91000000  1.50000000  1.50000000
C   1079.91000000  3.95951215  1.50000000
C   1079.91000000  6.41902429  1.50000000
C   1079.91000000  8.87853644  1.50000000
C   1079.91000000  11.33804859  1.50000000
C   1079.91000000  13.79756073  1.50000000
C   1079.91000000  16.25707288  1.50000000
C   1079.91000000  18.71658503  1.50000000
C   1079.91000000  21.17609717  1.50000000
C   1079.91000000  23.63560932  1.50000000
C   1079.91000000  26.09512147  1.50000000
C   1080.62000000  2.72975607  1.50000000
C   1080.62000000  5.18926822  1.50000000
C   1080.62000000  7.64878037  1.50000000
C   1080.62000000  10.10829251  1.50000000
C   1080.62000000  12.56780466  1.50000000
C   1080.62000000  15.02731681  1.50000000
C   1080.62000000  17.48682895  1.50000000
C   1080.62000000  19.94634110  1.50000000
C   1080.62000000  22.40585325  1.50000000
C   1080.62000000  24.86536539  1.50000000
C   1082.04000000  2.72975607  1.50000000
C   1082.04000000  5.18926822  1.50000000
C   1082.04000000  7.64878037  1.50000000
C   1082.04000000  10.10829251  1.50000000
C   1082.04000000  12.56780466  1.50000000
C   1082.04000000  15.02731681  1.50000000
C   1082.04000000  17.48682895  1.50000000
C   1082.04000000  19.94634110  1.50000000
C   1082.04000000  22.40585325  1.50000000
C   1082.04000000  24.86536539  1.50000000
C   1082.75000000  1.50000000  1.50000000
C   1082.75000000  3.95951215  1.50000000
C   1082.75000000  6.41902429  1.50000000
C   1082.75000000  8.87853644  1.50000000
C   1082.75000000  11.33804859  1.50000000
C   1082.75000000  13.79756073  1.50000000
C   1082.75000000  16.25707288  1.50000000
C   1082.75000000  18.71658503  1.50000000
C   1082.75000000  21.17609717  1.50000000
C   1082.75000000  23.63560932  1.50000000
C   1082.75000000  26.09512147  1.50000000
C   1084.17000000  1.50000000  1.50000000
C   1084.17000000  3.95951215  1.50000000
C   1084.17000000  6.41902429  1.50000000
C   1084.17000000  8.87853644  1.50000000
C   1084.17000000  11.33804859  1.50000000
C   1084.17000000  13.79756073  1.50000000
C   1084.17000000  16.25707288  1.50000000
C   1084.17000000  18.71658503  1.50000000
C   1084.17000000  21.17609717  1.50000000
C   1084.17000000  23.63560932  1.50000000
C   1084.17000000  26.09512147  1.50000000
C   1084.88000000  2.72975607  1.50000000
C   1084.88000000  5.18926822  1.50000000
C   1084.88000000  7.64878037  1.50000000
C   1084.88000000  10.10829251  1.50000000
C   1084.88000000  12.56780466  1.50000000
C   1084.88000000  15.02731681  1.50000000
C   1084.88000000  17.48682895  1.50000000
C   1084.88000000  19.94634110  1.50000000
C   1084.88000000  22.40585325  1.50000000
C   1084.88000000  24.86536539  1.50000000
C   1086.30000000  2.72975607  1.50000000
C   1086.30000000  5.18926822  1.50000000
C   1086.30000000  7.64878037  1.50000000
C   1086.30000000  10.10829251  1.50000000
C   1086.30000000  12.56780466  1.50000000
C   1086.30000000  15.02731681  1.50000000
C   1086.30000000  17.48682895  1.50000000
C   1086.30000000  19.94634110  1.50000000
C   1086.30000000  22.40585325  1.50000000
C   1086.30000000  24.86536539  1.50000000
C   1087.01000000  1.50000000  1.50000000
C   1087.01000000  3.95951215  1.50000000
C   1087.01000000  6.41902429  1.50000000
C   1087.01000000  8.87853644  1.50000000
C   1087.01000000  11.33804859  1.50000000
C   1087.01000000  13.79756073  1.50000000
C   1087.01000000  16.25707288  1.50000000
C   1087.01000000  18.71658503  1.50000000
C   1087.01000000  21.17609717  1.50000000
C   1087.01000000  23.63560932  1.50000000
C   1087.01000000  26.09512147  1.50000000
C   1088.43000000  1.50000000  1.50000000
C   1088.43000000  3.95951215  1.50000000
C   1088.43000000  6.41902429  1.50000000
C   1088.43000000  8.87853644  1.50000000
C   1088.43000000  11.33804859  1.50000000
C   1088.43000000  13.79756073  1.50000000
C   1088.43000000  16.25707288  1.50000000
C   1088.43000000  18.71658503  1.50000000
C   1088.43000000  21.17609717  1.50000000
C   1088.43000000  23.63560932  1.50000000
C   1088.43000000  26.09512147  1.50000000
C   1089.14000000  2.72975607  1.50000000
C   1089.14000000  5.18926822  1.50000000
C   1089.14000000  7.64878037  1.50000000
C   1089.14000000  10.10829251  1.50000000
C   1089.14000000  12.56780466  1.50000000
C   1089.14000000  15.02731681  1.50000000
C   1089.14000000  17.48682895  1.50000000
C   1089.14000000  19.94634110  1.50000000
C   1089.14000000  22.40585325  1.50000000
C   1089.14000000  24.86536539  1.50000000
C   1090.56000000  2.72975607  1.50000000
C   1090.56000000  5.18926822  1.50000000
C   1090.56000000  7.64878037  1.50000000
C   1090.56000000  10.10829251  1.50000000
C   1090.56000000  12.56780466  1.50000000
C   1090.56000000  15.02731681  1.50000000
C   1090.56000000  17.48682895  1.50000000
C   1090.56000000  19.94634110  1.50000000
C   1090.56000000  22.40585325  1.50000000
C   1090.56000000  24.86536539  1.50000000
C   1091.27000000  1.50000000  1.50000000
C   1091.27000000  3.95951215  1.50000000
C   1091.27000000  6.41902429  1.50000000
C   1091.27000000  8.87853644  1.50000000
C   1091.27000000  11.33804859  1.50000000
C   1091.27000000  13.79756073  1.50000000
C   1091.27000000  16.25707288  1.50000000
C   1091.27000000  18.71658503  1.50000000
C   1091.27000000  21.17609717  1.50000000
C   1091.27000000  23.63560932  1.50000000
C   1091.27000000  26.09512147  1.50000000
C   1092.69000000  1.50000000  1.50000000
C   1092.69000000  3.95951215  1.50000000
C   1092.69000000  6.41902429  1.50000000
C   1092.69000000  8.87853644  1.50000000
C   1092.69000000  11.33804859  1.50000000
C   1092.69000000  13.79756073  1.50000000
C   1092.69000000  16.25707288  1.50000000
C   1092.69000000  18.71658503  1.50000000
C   1092.69000000  21.17609717  1.50000000
C   1092.69000000  23.63560932  1.50000000
C   1092.69000000  26.09512147  1.50000000
C   1093.40000000  2.72975607  1.50000000
C   1093.40000000  5.18926822  1.50000000
C   1093.40000000  7.64878037  1.50000000
C   1093.40000000  10.10829251  1.50000000
C   1093.40000000  12.56780466  1.50000000
C   1093.40000000  15.02731681  1.50000000
C   1093.40000000  17.48682895  1.50000000
C   1093.40000000  19.94634110  1.50000000
C   1093.40000000  22.40585325  1.50000000
C   1093.40000000  24.86536539  1.50000000
C   1094.82000000  2.72975607  1.50000000
C   1094.82000000  5.18926822  1.50000000
C   1094.82000000  7.64878037  1.50000000
C   1094.82000000  10.10829251  1.50000000
C   1094.82000000  12.56780466  1.50000000
C   1094.82000000  15.02731681  1.50000000
C   1094.82000000  17.48682895  1.50000000
C   1094.82000000  19.94634110  1.50000000
C   1094.82000000  22.40585325  1.50000000
C   1094.82000000  24.86536539  1.50000000
C   1095.53000000  1.50000000  1.50000000
C   1095.53000000  3.95951215  1.50000000
C   1095.53000000  6.41902429  1.50000000
C   1095.53000000  8.87853644  1.50000000
C   1095.53000000  11.33804859  1.50000000
C   1095.53000000  13.79756073  1.50000000
C   1095.53000000  16.25707288  1.50000000
C   1095.53000000  18.71658503  1.50000000
C   1095.53000000  21.17609717  1.50000000
C   1095.53000000  23.63560932  1.50000000
C   1095.53000000  26.09512147  1.50000000
C   1096.95000000  1.50000000  1.50000000
C   1096.95000000  3.95951215  1.50000000
C   1096.95000000  6.41902429  1.50000000
C   1096.95000000  8.87853644  1.50000000
C   1096.95000000  11.33804859  1.50000000
C   1096.95000000  13.79756073  1.50000000
C   1096.95000000  16.25707288  1.50000000
C   1096.95000000  18.71658503  1.50000000
C   1096.95000000  21.17609717  1.50000000
C   1096.95000000  23.63560932  1.50000000
C   1096.95000000  26.09512147  1.50000000
C   1097.66000000  2.72975607  1.50000000
C   1097.66000000  5.18926822  1.50000000
C   1097.66000000  7.64878037  1.50000000
C   1097.66000000  10.10829251  1.50000000
C   1097.66000000  12.56780466  1.50000000
C   1097.66000000  15.02731681  1.50000000
C   1097.66000000  17.48682895  1.50000000
C   1097.66000000  19.94634110  1.50000000
C   1097.66000000  22.40585325  1.50000000
C   1097.66000000  24.86536539  1.50000000
C   1099.08000000  2.72975607  1.50000000
C   1099.08000000  5.18926822  1.50000000
C   1099.08000000  7.64878037  1.50000000
C   1099.08000000  10.10829251  1.50000000
C   1099.08000000  12.56780466  1.50000000
C   1099.08000000  15.02731681  1.50000000
C   1099.08000000  17.48682895  1.50000000
C   1099.08000000  19.94634110  1.50000000
C   1099.08000000  22.40585325  1.50000000
C   1099.08000000  24.86536539  1.50000000
C   1099.79000000  1.50000000  1.50000000
C   1099.79000000  3.95951215  1.50000000
C   1099.79000000  6.41902429  1.50000000
C   1099.79000000  8.87853644  1.50000000
C   1099.79000000  11.33804859  1.50000000
C   1099.79000000  13.79756073  1.50000000
C   1099.79000000  16.25707288  1.50000000
C   1099.79000000  18.71658503  1.50000000
C   1099.79000000  21.17609717  1.50000000
C   1099.79000000  23.63560932  1.50000000
C   1099.79000000  26.09512147  1.50000000
C   1101.21000000  1.50000000  1.50000000
C   1101.21000000  3.95951215  1.50000000
C   1101.21000000  6.41902429  1.50000000
C   1101.21000000  8.87853644  1.50000000
C   1101.21000000  11.33804859  1.50000000
C   1101.21000000  13.79756073  1.50000000
C   1101.21000000  16.25707288  1.50000000
C   1101.21000000  18.71658503  1.50000000
C   1101.21000000  21.17609717  1.50000000
C   1101.21000000  23.63560932  1.50000000
C   1101.21000000  26.09512147  1.50000000
C   1101.92000000  2.72975607  1.50000000
C   1101.92000000  5.18926822  1.50000000
C   1101.92000000  7.64878037  1.50000000
C   1101.92000000  10.10829251  1.50000000
C   1101.92000000  12.56780466  1.50000000
C   1101.92000000  15.02731681  1.50000000
C   1101.92000000  17.48682895  1.50000000
C   1101.92000000  19.94634110  1.50000000
C   1101.92000000  22.40585325  1.50000000
C   1101.92000000  24.86536539  1.50000000
C   1103.34000000  2.72975607  1.50000000
C   1103.34000000  5.18926822  1.50000000
C   1103.34000000  7.64878037  1.50000000
C   1103.34000000  10.10829251  1.50000000
C   1103.34000000  12.56780466  1.50000000
C   1103.34000000  15.02731681  1.50000000
C   1103.34000000  17.48682895  1.50000000
C   1103.34000000  19.94634110  1.50000000
C   1103.34000000  22.40585325  1.50000000
C   1103.34000000  24.86536539  1.50000000
C   1104.05000000  1.50000000  1.50000000
C   1104.05000000  3.95951215  1.50000000
C   1104.05000000  6.41902429  1.50000000
C   1104.05000000  8.87853644  1.50000000
C   1104.05000000  11.33804859  1.50000000
C   1104.05000000  13.79756073  1.50000000
C   1104.05000000  16.25707288  1.50000000
C   1104.05000000  18.71658503  1.50000000
C   1104.05000000  21.17609717  1.50000000
C   1104.05000000  23.63560932  1.50000000
C   1104.05000000  26.09512147  1.50000000
C   1105.47000000  1.50000000  1.50000000
C   1105.47000000  3.95951215  1.50000000
C   1105.47000000  6.41902429  1.50000000
C   1105.47000000  8.87853644  1.50000000
C   1105.47000000  11.33804859  1.50000000
C   1105.47000000  13.79756073  1.50000000
C   1105.47000000  16.25707288  1.50000000
C   1105.47000000  18.71658503  1.50000000
C   1105.47000000  21.17609717  1.50000000
C   1105.47000000  23.63560932  1.50000000
C   1105.47000000  26.09512147  1.50000000
C   1106.18000000  2.72975607  1.50000000
C   1106.18000000  5.18926822  1.50000000
C   1106.18000000  7.64878037  1.50000000
C   1106.18000000  10.10829251  1.50000000
C   1106.18000000  12.56780466  1.50000000
C   1106.18000000  15.02731681  1.50000000
C   1106.18000000  17.48682895  1.50000000
C   1106.18000000  19.94634110  1.50000000
C   1106.18000000  22.40585325  1.50000000
C   1106.18000000  24.86536539  1.50000000
C   1107.60000000  2.72975607  1.50000000
C   1107.60000000  5.18926822  1.50000000
C   1107.60000000  7.64878037  1.50000000
C   1107.60000000  10.10829251  1.50000000
C   1107.60000000  12.56780466  1.50000000
C   1107.60000000  15.02731681  1.50000000
C   1107.60000000  17.48682895  1.50000000
C   1107.60000000  19.94634110  1.50000000
C   1107.60000000  22.40585325  1.50000000
C   1107.60000000  24.86536539  1.50000000
C   1108.31000000  1.50000000  1.50000000
C   1108.31000000  3.95951215  1.50000000
C   1108.31000000  6.41902429  1.50000000
C   1108.31000000  8.87853644  1.50000000
C   1108.31000000  11.33804859  1.50000000
C   1108.31000000  13.79756073  1.50000000
C   1108.31000000  16.25707288  1.50000000
C   1108.31000000  18.71658503  1.50000000
C   1108.31000000  21.17609717  1.50000000
C   1108.31000000  23.63560932  1.50000000
C   1108.31000000  26.09512147  1.50000000
C   1109.73000000  1.50000000  1.50000000
C   1109.73000000  3.95951215  1.50000000
C   1109.73000000  6.41902429  1.50000000
C   1109.73000000  8.87853644  1.50000000
C   1109.73000000  11.33804859  1.50000000
C   1109.73000000  13.79756073  1.50000000
C   1109.73000000  16.25707288  1.50000000
C   1109.73000000  18.71658503  1.50000000
C   1109.73000000  21.17609717  1.50000000
C   1109.73000000  23.63560932  1.50000000
C   1109.73000000  26.09512147  1.50000000
C   1110.44000000  2.72975607  1.50000000
C   1110.44000000  5.18926822  1.50000000
C   1110.44000000  7.64878037  1.50000000
C   1110.44000000  10.10829251  1.50000000
C   1110.44000000  12.56780466  1.50000000
C   1110.44000000  15.02731681  1.50000000
C   1110.44000000  17.48682895  1.50000000
C   1110.44000000  19.94634110  1.50000000
C   1110.44000000  22.40585325  1.50000000
C   1110.44000000  24.86536539  1.50000000
C   1111.86000000  2.72975607  1.50000000
C   1111.86000000  5.18926822  1.50000000
C   1111.86000000  7.64878037  1.50000000
C   1111.86000000  10.10829251  1.50000000
C   1111.86000000  12.56780466  1.50000000
C   1111.86000000  15.02731681  1.50000000
C   1111.86000000  17.48682895  1.50000000
C   1111.86000000  19.94634110  1.50000000
C   1111.86000000  22.40585325  1.50000000
C   1111.86000000  24.86536539  1.50000000
C   1112.57000000  1.50000000  1.50000000
C   1112.57000000  3.95951215  1.50000000
C   1112.57000000  6.41902429  1.50000000
C   1112.57000000  8.87853644  1.50000000
C   1112.57000000  11.33804859  1.50000000
C   1112.57000000  13.79756073  1.50000000
C   1112.57000000  16.25707288  1.50000000
C   1112.57000000  18.71658503  1.50000000
C   1112.57000000  21.17609717  1.50000000
C   1112.57000000  23.63560932  1.50000000
C   1112.57000000  26.09512147  1.50000000
C   1113.99000000  1.50000000  1.50000000
C   1113.99000000  3.95951215  1.50000000
C   1113.99000000  6.41902429  1.50000000
C   1113.99000000  8.87853644  1.50000000
C   1113.99000000  11.33804859  1.50000000
C   1113.99000000  13.79756073  1.50000000
C   1113.99000000  16.25707288  1.50000000
C   1113.99000000  18.71658503  1.50000000
C   1113.99000000  21.17609717  1.50000000
C   1113.99000000  23.63560932  1.50000000
C   1113.99000000  26.09512147  1.50000000
C   1114.70000000  2.72975607  1.50000000
C   1114.70000000  5.18926822  1.50000000
C   1114.70000000  7.64878037  1.50000000
C   1114.70000000  10.10829251  1.50000000
C   1114.70000000  12.56780466  1.50000000
C   1114.70000000  15.02731681  1.50000000
C   1114.70000000  17.48682895  1.50000000
C   1114.70000000  19.94634110  1.50000000
C   1114.70000000  22.40585325  1.50000000
C   1114.70000000  24.86536539  1.50000000
C   1116.12000000  2.72975607  1.50000000
C   1116.12000000  5.18926822  1.50000000
C   1116.12000000  7.64878037  1.50000000
C   1116.12000000  10.10829251  1.50000000
C   1116.12000000  12.56780466  1.50000000
C   1116.12000000  15.02731681  1.50000000
C   1116.12000000  17.48682895  1.50000000
C   1116.12000000  19.94634110  1.50000000
C   1116.12000000  22.40585325  1.50000000
C   1116.12000000  24.86536539  1.50000000
C   1116.83000000  1.50000000  1.50000000
C   1116.83000000  3.95951215  1.50000000
C   1116.83000000  6.41902429  1.50000000
C   1116.83000000  8.87853644  1.50000000
C   1116.83000000  11.33804859  1.50000000
C   1116.83000000  13.79756073  1.50000000
C   1116.83000000  16.25707288  1.50000000
C   1116.83000000  18.71658503  1.50000000
C   1116.83000000  21.17609717  1.50000000
C   1116.83000000  23.63560932  1.50000000
C   1116.83000000  26.09512147  1.50000000
C   1118.25000000  1.50000000  1.50000000
C   1118.25000000  3.95951215  1.50000000
C   1118.25000000  6.41902429  1.50000000
C   1118.25000000  8.87853644  1.50000000
C   1118.25000000  11.33804859  1.50000000
C   1118.25000000  13.79756073  1.50000000
C   1118.25000000  16.25707288  1.50000000
C   1118.25000000  18.71658503  1.50000000
C   1118.25000000  21.17609717  1.50000000
C   1118.25000000  23.63560932  1.50000000
C   1118.25000000  26.09512147  1.50000000
C   1118.96000000  2.72975607  1.50000000
C   1118.96000000  5.18926822  1.50000000
C   1118.96000000  7.64878037  1.50000000
C   1118.96000000  10.10829251  1.50000000
C   1118.96000000  12.56780466  1.50000000
C   1118.96000000  15.02731681  1.50000000
C   1118.96000000  17.48682895  1.50000000
C   1118.96000000  19.94634110  1.50000000
C   1118.96000000  22.40585325  1.50000000
C   1118.96000000  24.86536539  1.50000000
C   1120.38000000  2.72975607  1.50000000
C   1120.38000000  5.18926822  1.50000000
C   1120.38000000  7.64878037  1.50000000
C   1120.38000000  10.10829251  1.50000000
C   1120.38000000  12.56780466  1.50000000
C   1120.38000000  15.02731681  1.50000000
C   1120.38000000  17.48682895  1.50000000
C   1120.38000000  19.94634110  1.50000000
C   1120.38000000  22.40585325  1.50000000
C   1120.38000000  24.86536539  1.50000000
C   1121.09000000  1.50000000  1.50000000
C   1121.09000000  3.95951215  1.50000000
C   1121.09000000  6.41902429  1.50000000
C   1121.09000000  8.87853644  1.50000000
C   1121.09000000  11.33804859  1.50000000
C   1121.09000000  13.79756073  1.50000000
C   1121.09000000  16.25707288  1.50000000
C   1121.09000000  18.71658503  1.50000000
C   1121.09000000  21.17609717  1.50000000
C   1121.09000000  23.63560932  1.50000000
C   1121.09000000  26.09512147  1.50000000
C   1122.51000000  1.50000000  1.50000000
C   1122.51000000  3.95951215  1.50000000
C   1122.51000000  6.41902429  1.50000000
C   1122.51000000  8.87853644  1.50000000
C   1122.51000000  11.33804859  1.50000000
C   1122.51000000  13.79756073  1.50000000
C   1122.51000000  16.25707288  1.50000000
C   1122.51000000  18.71658503  1.50000000
C   1122.51000000  21.17609717  1.50000000
C   1122.51000000  23.63560932  1.50000000
C   1122.51000000  26.09512147  1.50000000
C   1123.22000000  2.72975607  1.50000000
C   1123.22000000  5.18926822  1.50000000
C   1123.22000000  7.64878037  1.50000000
C   1123.22000000  10.10829251  1.50000000
C   1123.22000000  12.56780466  1.50000000
C   1123.22000000  15.02731681  1.50000000
C   1123.22000000  17.48682895  1.50000000
C   1123.22000000  19.94634110  1.50000000
C   1123.22000000  22.40585325  1.50000000
C   1123.22000000  24.86536539  1.50000000
C   1124.64000000  2.72975607  1.50000000
C   1124.64000000  5.18926822  1.50000000
C   1124.64000000  7.64878037  1.50000000
C   1124.64000000  10.10829251  1.50000000
C   1124.64000000  12.56780466  1.50000000
C   1124.64000000  15.02731681  1.50000000
C   1124.64000000  17.48682895  1.50000000
C   1124.64000000  19.94634110  1.50000000
C   1124.64000000  22.40585325  1.50000000
C   1124.64000000  24.86536539  1.50000000
C   1125.35000000  1.50000000  1.50000000
C   1125.35000000  3.95951215  1.50000000
C   1125.35000000  6.41902429  1.50000000
C   1125.35000000  8.87853644  1.50000000
C   1125.35000000  11.33804859  1.50000000
C   1125.35000000  13.79756073  1.50000000
C   1125.35000000  16.25707288  1.50000000
C   1125.35000000  18.71658503  1.50000000
C   1125.35000000  21.17609717  1.50000000
C   1125.35000000  23.63560932  1.50000000
C   1125.35000000  26.09512147  1.50000000
C   1126.77000000  1.50000000  1.50000000
C   1126.77000000  3.95951215  1.50000000
C   1126.77000000  6.41902429  1.50000000
C   1126.77000000  8.87853644  1.50000000
C   1126.77000000  11.33804859  1.50000000
C   1126.77000000  13.79756073  1.50000000
C   1126.77000000  16.25707288  1.50000000
C   1126.77000000  18.71658503  1.50000000
C   1126.77000000  21.17609717  1.50000000
C   1126.77000000  23.63560932  1.50000000
C   1126.77000000  26.09512147  1.50000000
C   1127.48000000  2.72975607  1.50000000
C   1127.48000000  5.18926822  1.50000000
C   1127.48000000  7.64878037  1.50000000
C   1127.48000000  10.10829251  1.50000000
C   1127.48000000  12.56780466  1.50000000
C   1127.48000000  15.02731681  1.50000000
C   1127.48000000  17.48682895  1.50000000
C   1127.48000000  19.94634110  1.50000000
C   1127.48000000  22.40585325  1.50000000
C   1127.48000000  24.86536539  1.50000000
C   1128.90000000  2.72975607  1.50000000
C   1128.90000000  5.18926822  1.50000000
C   1128.90000000  7.64878037  1.50000000
C   1128.90000000  10.10829251  1.50000000
C   1128.90000000  12.56780466  1.50000000
C   1128.90000000  15.02731681  1.50000000
C   1128.90000000  17.48682895  1.50000000
C   1128.90000000  19.94634110  1.50000000
C   1128.90000000  22.40585325  1.50000000
C   1128.90000000  24.86536539  1.50000000
C   1129.61000000  1.50000000  1.50000000
C   1129.61000000  3.95951215  1.50000000
C   1129.61000000  6.41902429  1.50000000
C   1129.61000000  8.87853644  1.50000000
C   1129.61000000  11.33804859  1.50000000
C   1129.61000000  13.79756073  1.50000000
C   1129.61000000  16.25707288  1.50000000
C   1129.61000000  18.71658503  1.50000000
C   1129.61000000  21.17609717  1.50000000
C   1129.61000000  23.63560932  1.50000000
C   1129.61000000  26.09512147  1.50000000
C   1131.03000000  1.50000000  1.50000000
C   1131.03000000  3.95951215  1.50000000
C   1131.03000000  6.41902429  1.50000000
C   1131.03000000  8.87853644  1.50000000
C   1131.03000000  11.33804859  1.50000000
C   1131.03000000  13.79756073  1.50000000
C   1131.03000000  16.25707288  1.50000000
C   1131.03000000  18.71658503  1.50000000
C   1131.03000000  21.17609717  1.50000000
C   1131.03000000  23.63560932  1.50000000
C   1131.03000000  26.09512147  1.50000000
C   1131.74000000  2.72975607  1.50000000
C   1131.74000000  5.18926822  1.50000000
C   1131.74000000  7.64878037  1.50000000
C   1131.74000000  10.10829251  1.50000000
C   1131.74000000  12.56780466  1.50000000
C   1131.74000000  15.02731681  1.50000000
C   1131.74000000  17.48682895  1.50000000
C   1131.74000000  19.94634110  1.50000000
C   1131.74000000  22.40585325  1.50000000
C   1131.74000000  24.86536539  1.50000000
C   1133.16000000  2.72975607  1.50000000
C   1133.16000000  5.18926822  1.50000000
C   1133.16000000  7.64878037  1.50000000
C   1133.16000000  10.10829251  1.50000000
C   1133.16000000  12.56780466  1.50000000
C   1133.16000000  15.02731681  1.50000000
C   1133.16000000  17.48682895  1.50000000
C   1133.16000000  19.94634110  1.50000000
C   1133.16000000  22.40585325  1.50000000
C   1133.16000000  24.86536539  1.50000000
C   1133.87000000  1.50000000  1.50000000
C   1133.87000000  3.95951215  1.50000000
C   1133.87000000  6.41902429  1.50000000
C   1133.87000000  8.87853644  1.50000000
C   1133.87000000  11.33804859  1.50000000
C   1133.87000000  13.79756073  1.50000000
C   1133.87000000  16.25707288  1.50000000
C   1133.87000000  18.71658503  1.50000000
C   1133.87000000  21.17609717  1.50000000
C   1133.87000000  23.63560932  1.50000000
C   1133.87000000  26.09512147  1.50000000
C   1135.29000000  1.50000000  1.50000000
C   1135.29000000  3.95951215  1.50000000
C   1135.29000000  6.41902429  1.50000000
C   1135.29000000  8.87853644  1.50000000
C   1135.29000000  11.33804859  1.50000000
C   1135.29000000  13.79756073  1.50000000
C   1135.29000000  16.25707288  1.50000000
C   1135.29000000  18.71658503  1.50000000
C   1135.29000000  21.17609717  1.50000000
C   1135.29000000  23.63560932  1.50000000
C   1135.29000000  26.09512147  1.50000000
C   1136.00000000  2.72975607  1.50000000
C   1136.00000000  5.18926822  1.50000000
C   1136.00000000  7.64878037  1.50000000
C   1136.00000000  10.10829251  1.50000000
C   1136.00000000  12.56780466  1.50000000
C   1136.00000000  15.02731681  1.50000000
C   1136.00000000  17.48682895  1.50000000
C   1136.00000000  19.94634110  1.50000000
C   1136.00000000  22.40585325  1.50000000
C   1136.00000000  24.86536539  1.50000000
C   1137.42000000  2.72975607  1.50000000
C   1137.42000000  5.18926822  1.50000000
C   1137.42000000  7.64878037  1.50000000
C   1137.42000000  10.10829251  1.50000000
C   1137.42000000  12.56780466  1.50000000
C   1137.42000000  15.02731681  1.50000000
C   1137.42000000  17.48682895  1.50000000
C   1137.42000000  19.94634110  1.50000000
C   1137.42000000  22.40585325  1.50000000
C   1137.42000000  24.86536539  1.50000000
C   1138.13000000  1.50000000  1.50000000
C   1138.13000000  3.95951215  1.50000000
C   1138.13000000  6.41902429  1.50000000
C   1138.13000000  8.87853644  1.50000000
C   1138.13000000  11.33804859  1.50000000
C   1138.13000000  13.79756073  1.50000000
C   1138.13000000  16.25707288  1.50000000
C   1138.13000000  18.71658503  1.50000000
C   1138.13000000  21.17609717  1.50000000
C   1138.13000000  23.63560932  1.50000000
C   1138.13000000  26.09512147  1.50000000
C   1139.55000000  1.50000000  1.50000000
C   1139.55000000  3.95951215  1.50000000
C   1139.55000000  6.41902429  1.50000000
C   1139.55000000  8.87853644  1.50000000
C   1139.55000000  11.33804859  1.50000000
C   1139.55000000  13.79756073  1.50000000
C   1139.55000000  16.25707288  1.50000000
C   1139.55000000  18.71658503  1.50000000
C   1139.55000000  21.17609717  1.50000000
C   1139.55000000  23.63560932  1.50000000
C   1139.55000000  26.09512147  1.50000000
C   1140.26000000  2.72975607  1.50000000
C   1140.26000000  5.18926822  1.50000000
C   1140.26000000  7.64878037  1.50000000
C   1140.26000000  10.10829251  1.50000000
C   1140.26000000  12.56780466  1.50000000
C   1140.26000000  15.02731681  1.50000000
C   1140.26000000  17.48682895  1.50000000
C   1140.26000000  19.94634110  1.50000000
C   1140.26000000  22.40585325  1.50000000
C   1140.26000000  24.86536539  1.50000000
C   1141.68000000  2.72975607  1.50000000
C   1141.68000000  5.18926822  1.50000000
C   1141.68000000  7.64878037  1.50000000
C   1141.68000000  10.10829251  1.50000000
C   1141.68000000  12.56780466  1.50000000
C   1141.68000000  15.02731681  1.50000000
C   1141.68000000  17.48682895  1.50000000
C   1141.68000000  19.94634110  1.50000000
C   1141.68000000  22.40585325  1.50000000
C   1141.68000000  24.86536539  1.50000000
C   1142.39000000  1.50000000  1.50000000
C   1142.39000000  3.95951215  1.50000000
C   1142.39000000  6.41902429  1.50000000
C   1142.39000000  8.87853644  1.50000000
C   1142.39000000  11.33804859  1.50000000
C   1142.39000000  13.79756073  1.50000000
C   1142.39000000  16.25707288  1.50000000
C   1142.39000000  18.71658503  1.50000000
C   1142.39000000  21.17609717  1.50000000
C   1142.39000000  23.63560932  1.50000000
C   1142.39000000  26.09512147  1.50000000
C   1143.81000000  1.50000000  1.50000000
C   1143.81000000  3.95951215  1.50000000
C   1143.81000000  6.41902429  1.50000000
C   1143.81000000  8.87853644  1.50000000
C   1143.81000000  11.33804859  1.50000000
C   1143.81000000  13.79756073  1.50000000
C   1143.81000000  16.25707288  1.50000000
C   1143.81000000  18.71658503  1.50000000
C   1143.81000000  21.17609717  1.50000000
C   1143.81000000  23.63560932  1.50000000
C   1143.81000000  26.09512147  1.50000000
C   1144.52000000  2.72975607  1.50000000
C   1144.52000000  5.18926822  1.50000000
C   1144.52000000  7.64878037  1.50000000
C   1144.52000000  10.10829251  1.50000000
C   1144.52000000  12.56780466  1.50000000
C   1144.52000000  15.02731681  1.50000000
C   1144.52000000  17.48682895  1.50000000
C   1144.52000000  19.94634110  1.50000000
C   1144.52000000  22.40585325  1.50000000
C   1144.52000000  24.86536539  1.50000000
C   1145.94000000  2.72975607  1.50000000
C   1145.94000000  5.18926822  1.50000000
C   1145.94000000  7.64878037  1.50000000
C   1145.94000000  10.10829251  1.50000000
C   1145.94000000  12.56780466  1.50000000
C   1145.94000000  15.02731681  1.50000000
C   1145.94000000  17.48682895  1.50000000
C   1145.94000000  19.94634110  1.50000000
C   1145.94000000  22.40585325  1.50000000
C   1145.94000000  24.86536539  1.50000000
C   1146.65000000  1.50000000  1.50000000
C   1146.65000000  3.95951215  1.50000000
C   1146.65000000  6.41902429  1.50000000
C   1146.65000000  8.87853644  1.50000000
C   1146.65000000  11.33804859  1.50000000
C   1146.65000000  13.79756073  1.50000000
C   1146.65000000  16.25707288  1.50000000
C   1146.65000000  18.71658503  1.50000000
C   1146.65000000  21.17609717  1.50000000
C   1146.65000000  23.63560932  1.50000000
C   1146.65000000  26.09512147  1.50000000
C   1148.07000000  1.50000000  1.50000000
C   1148.07000000  3.95951215  1.50000000
C   1148.07000000  6.41902429  1.50000000
C   1148.07000000  8.87853644  1.50000000
C   1148.07000000  11.33804859  1.50000000
C   1148.07000000  13.79756073  1.50000000
C   1148.07000000  16.25707288  1.50000000
C   1148.07000000  18.71658503  1.50000000
C   1148.07000000  21.17609717  1.50000000
C   1148.07000000  23.63560932  1.50000000
C   1148.07000000  26.09512147  1.50000000
C   1148.78000000  2.72975607  1.50000000
C   1148.78000000  5.18926822  1.50000000
C   1148.78000000  7.64878037  1.50000000
C   1148.78000000  10.10829251  1.50000000
C   1148.78000000  12.56780466  1.50000000
C   1148.78000000  15.02731681  1.50000000
C   1148.78000000  17.48682895  1.50000000
C   1148.78000000  19.94634110  1.50000000
C   1148.78000000  22.40585325  1.50000000
C   1148.78000000  24.86536539  1.50000000
C   1150.20000000  2.72975607  1.50000000
C   1150.20000000  5.18926822  1.50000000
C   1150.20000000  7.64878037  1.50000000
C   1150.20000000  10.10829251  1.50000000
C   1150.20000000  12.56780466  1.50000000
C   1150.20000000  15.02731681  1.50000000
C   1150.20000000  17.48682895  1.50000000
C   1150.20000000  19.94634110  1.50000000
C   1150.20000000  22.40585325  1.50000000
C   1150.20000000  24.86536539  1.50000000
C   1150.91000000  1.50000000  1.50000000
C   1150.91000000  3.95951215  1.50000000
C   1150.91000000  6.41902429  1.50000000
C   1150.91000000  8.87853644  1.50000000
C   1150.91000000  11.33804859  1.50000000
C   1150.91000000  13.79756073  1.50000000
C   1150.91000000  16.25707288  1.50000000
C   1150.91000000  18.71658503  1.50000000
C   1150.91000000  21.17609717  1.50000000
C   1150.91000000  23.63560932  1.50000000
C   1150.91000000  26.09512147  1.50000000
C   1152.33000000  1.50000000  1.50000000
C   1152.33000000  3.95951215  1.50000000
C   1152.33000000  6.41902429  1.50000000
C   1152.33000000  8.87853644  1.50000000
C   1152.33000000  11.33804859  1.50000000
C   1152.33000000  13.79756073  1.50000000
C   1152.33000000  16.25707288  1.50000000
C   1152.33000000  18.71658503  1.50000000
C   1152.33000000  21.17609717  1.50000000
C   1152.33000000  23.63560932  1.50000000
C   1152.33000000  26.09512147  1.50000000
C   1153.04000000  2.72975607  1.50000000
C   1153.04000000  5.18926822  1.50000000
C   1153.04000000  7.64878037  1.50000000
C   1153.04000000  10.10829251  1.50000000
C   1153.04000000  12.56780466  1.50000000
C   1153.04000000  15.02731681  1.50000000
C   1153.04000000  17.48682895  1.50000000
C   1153.04000000  19.94634110  1.50000000
C   1153.04000000  22.40585325  1.50000000
C   1153.04000000  24.86536539  1.50000000
C   1154.46000000  2.72975607  1.50000000
C   1154.46000000  5.18926822  1.50000000
C   1154.46000000  7.64878037  1.50000000
C   1154.46000000  10.10829251  1.50000000
C   1154.46000000  12.56780466  1.50000000
C   1154.46000000  15.02731681  1.50000000
C   1154.46000000  17.48682895  1.50000000
C   1154.46000000  19.94634110  1.50000000
C   1154.46000000  22.40585325  1.50000000
C   1154.46000000  24.86536539  1.50000000
C   1155.17000000  1.50000000  1.50000000
C   1155.17000000  3.95951215  1.50000000
C   1155.17000000  6.41902429  1.50000000
C   1155.17000000  8.87853644  1.50000000
C   1155.17000000  11.33804859  1.50000000
C   1155.17000000  13.79756073  1.50000000
C   1155.17000000  16.25707288  1.50000000
C   1155.17000000  18.71658503  1.50000000
C   1155.17000000  21.17609717  1.50000000
C   1155.17000000  23.63560932  1.50000000
C   1155.17000000  26.09512147  1.50000000
C   1156.59000000  1.50000000  1.50000000
C   1156.59000000  3.95951215  1.50000000
C   1156.59000000  6.41902429  1.50000000
C   1156.59000000  8.87853644  1.50000000
C   1156.59000000  11.33804859  1.50000000
C   1156.59000000  13.79756073  1.50000000
C   1156.59000000  16.25707288  1.50000000
C   1156.59000000  18.71658503  1.50000000
C   1156.59000000  21.17609717  1.50000000
C   1156.59000000  23.63560932  1.50000000
C   1156.59000000  26.09512147  1.50000000
C   1157.30000000  2.72975607  1.50000000
C   1157.30000000  5.18926822  1.50000000
C   1157.30000000  7.64878037  1.50000000
C   1157.30000000  10.10829251  1.50000000
C   1157.30000000  12.56780466  1.50000000
C   1157.30000000  15.02731681  1.50000000
C   1157.30000000  17.48682895  1.50000000
C   1157.30000000  19.94634110  1.50000000
C   1157.30000000  22.40585325  1.50000000
C   1157.30000000  24.86536539  1.50000000
C   1158.72000000  2.72975607  1.50000000
C   1158.72000000  5.18926822  1.50000000
C   1158.72000000  7.64878037  1.50000000
C   1158.72000000  10.10829251  1.50000000
C   1158.72000000  12.56780466  1.50000000
C   1158.72000000  15.02731681  1.50000000
C   1158.72000000  17.48682895  1.50000000
C   1158.72000000  19.94634110  1.50000000
C   1158.72000000  22.40585325  1.50000000
C   1158.72000000  24.86536539  1.50000000
C   1159.43000000  1.50000000  1.50000000
C   1159.43000000  3.95951215  1.50000000
C   1159.43000000  6.41902429  1.50000000
C   1159.43000000  8.87853644  1.50000000
C   1159.43000000  11.33804859  1.50000000
C   1159.43000000  13.79756073  1.50000000
C   1159.43000000  16.25707288  1.50000000
C   1159.43000000  18.71658503  1.50000000
C   1159.43000000  21.17609717  1.50000000
C   1159.43000000  23.63560932  1.50000000
C   1159.43000000  26.09512147  1.50000000
C   1160.85000000  1.50000000  1.50000000
C   1160.85000000  3.95951215  1.50000000
C   1160.85000000  6.41902429  1.50000000
C   1160.85000000  8.87853644  1.50000000
C   1160.85000000  11.33804859  1.50000000
C   1160.85000000  13.79756073  1.50000000
C   1160.85000000  16.25707288  1.50000000
C   1160.85000000  18.71658503  1.50000000
C   1160.85000000  21.17609717  1.50000000
C   1160.85000000  23.63560932  1.50000000
C   1160.85000000  26.09512147  1.50000000
C   1161.56000000  2.72975607  1.50000000
C   1161.56000000  5.18926822  1.50000000
C   1161.56000000  7.64878037  1.50000000
C   1161.56000000  10.10829251  1.50000000
C   1161.56000000  12.56780466  1.50000000
C   1161.56000000  15.02731681  1.50000000
C   1161.56000000  17.48682895  1.50000000
C   1161.56000000  19.94634110  1.50000000
C   1161.56000000  22.40585325  1.50000000
C   1161.56000000  24.86536539  1.50000000
C   1162.98000000  2.72975607  1.50000000
C   1162.98000000  5.18926822  1.50000000
C   1162.98000000  7.64878037  1.50000000
C   1162.98000000  10.10829251  1.50000000
C   1162.98000000  12.56780466  1.50000000
C   1162.98000000  15.02731681  1.50000000
C   1162.98000000  17.48682895  1.50000000
C   1162.98000000  19.94634110  1.50000000
C   1162.98000000  22.40585325  1.50000000
C   1162.98000000  24.86536539  1.50000000
C   1163.69000000  1.50000000  1.50000000
C   1163.69000000  3.95951215  1.50000000
C   1163.69000000  6.41902429  1.50000000
C   1163.69000000  8.87853644  1.50000000
C   1163.69000000  11.33804859  1.50000000
C   1163.69000000  13.79756073  1.50000000
C   1163.69000000  16.25707288  1.50000000
C   1163.69000000  18.71658503  1.50000000
C   1163.69000000  21.17609717  1.50000000
C   1163.69000000  23.63560932  1.50000000
C   1163.69000000  26.09512147  1.50000000
C   1165.11000000  1.50000000  1.50000000
C   1165.11000000  3.95951215  1.50000000
C   1165.11000000  6.41902429  1.50000000
C   1165.11000000  8.87853644  1.50000000
C   1165.11000000  11.33804859  1.50000000
C   1165.11000000  13.79756073  1.50000000
C   1165.11000000  16.25707288  1.50000000
C   1165.11000000  18.71658503  1.50000000
C   1165.11000000  21.17609717  1.50000000
C   1165.11000000  23.63560932  1.50000000
C   1165.11000000  26.09512147  1.50000000
C   1165.82000000  2.72975607  1.50000000
C   1165.82000000  5.18926822  1.50000000
C   1165.82000000  7.64878037  1.50000000
C   1165.82000000  10.10829251  1.50000000
C   1165.82000000  12.56780466  1.50000000
C   1165.82000000  15.02731681  1.50000000
C   1165.82000000  17.48682895  1.50000000
C   1165.82000000  19.94634110  1.50000000
C   1165.82000000  22.40585325  1.50000000
C   1165.82000000  24.86536539  1.50000000
C   1167.24000000  2.72975607  1.50000000
C   1167.24000000  5.18926822  1.50000000
C   1167.24000000  7.64878037  1.50000000
C   1167.24000000  10.10829251  1.50000000
C   1167.24000000  12.56780466  1.50000000
C   1167.24000000  15.02731681  1.50000000
C   1167.24000000  17.48682895  1.50000000
C   1167.24000000  19.94634110  1.50000000
C   1167.24000000  22.40585325  1.50000000
C   1167.24000000  24.86536539  1.50000000
C   1167.95000000  1.50000000  1.50000000
C   1167.95000000  3.95951215  1.50000000
C   1167.95000000  6.41902429  1.50000000
C   1167.95000000  8.87853644  1.50000000
C   1167.95000000  11.33804859  1.50000000
C   1167.95000000  13.79756073  1.50000000
C   1167.95000000  16.25707288  1.50000000
C   1167.95000000  18.71658503  1.50000000
C   1167.95000000  21.17609717  1.50000000
C   1167.95000000  23.63560932  1.50000000
C   1167.95000000  26.09512147  1.50000000
C   1169.37000000  1.50000000  1.50000000
C   1169.37000000  3.95951215  1.50000000
C   1169.37000000  6.41902429  1.50000000
C   1169.37000000  8.87853644  1.50000000
C   1169.37000000  11.33804859  1.50000000
C   1169.37000000  13.79756073  1.50000000
C   1169.37000000  16.25707288  1.50000000
C   1169.37000000  18.71658503  1.50000000
C   1169.37000000  21.17609717  1.50000000
C   1169.37000000  23.63560932  1.50000000
C   1169.37000000  26.09512147  1.50000000
C   1170.08000000  2.72975607  1.50000000
C   1170.08000000  5.18926822  1.50000000
C   1170.08000000  7.64878037  1.50000000
C   1170.08000000  10.10829251  1.50000000
C   1170.08000000  12.56780466  1.50000000
C   1170.08000000  15.02731681  1.50000000
C   1170.08000000  17.48682895  1.50000000
C   1170.08000000  19.94634110  1.50000000
C   1170.08000000  22.40585325  1.50000000
C   1170.08000000  24.86536539  1.50000000
C   1171.50000000  2.72975607  1.50000000
C   1171.50000000  5.18926822  1.50000000
C   1171.50000000  7.64878037  1.50000000
C   1171.50000000  10.10829251  1.50000000
C   1171.50000000  12.56780466  1.50000000
C   1171.50000000  15.02731681  1.50000000
C   1171.50000000  17.48682895  1.50000000
C   1171.50000000  19.94634110  1.50000000
C   1171.50000000  22.40585325  1.50000000
C   1171.50000000  24.86536539  1.50000000
C   1172.21000000  1.50000000  1.50000000
C   1172.21000000  3.95951215  1.50000000
C   1172.21000000  6.41902429  1.50000000
C   1172.21000000  8.87853644  1.50000000
C   1172.21000000  11.33804859  1.50000000
C   1172.21000000  13.79756073  1.50000000
C   1172.21000000  16.25707288  1.50000000
C   1172.21000000  18.71658503  1.50000000
C   1172.21000000  21.17609717  1.50000000
C   1172.21000000  23.63560932  1.50000000
C   1172.21000000  26.09512147  1.50000000
C   1173.63000000  1.50000000  1.50000000
C   1173.63000000  3.95951215  1.50000000
C   1173.63000000  6.41902429  1.50000000
C   1173.63000000  8.87853644  1.50000000
C   1173.63000000  11.33804859  1.50000000
C   1173.63000000  13.79756073  1.50000000
C   1173.63000000  16.25707288  1.50000000
C   1173.63000000  18.71658503  1.50000000
C   1173.63000000  21.17609717  1.50000000
C   1173.63000000  23.63560932  1.50000000
C   1173.63000000  26.09512147  1.50000000
C   1174.34000000  2.72975607  1.50000000
C   1174.34000000  5.18926822  1.50000000
C   1174.34000000  7.64878037  1.50000000
C   1174.34000000  10.10829251  1.50000000
C   1174.34000000  12.56780466  1.50000000
C   1174.34000000  15.02731681  1.50000000
C   1174.34000000  17.48682895  1.50000000
C   1174.34000000  19.94634110  1.50000000
C   1174.34000000  22.40585325  1.50000000
C   1174.34000000  24.86536539  1.50000000
C   1175.76000000  2.72975607  1.50000000
C   1175.76000000  5.18926822  1.50000000
C   1175.76000000  7.64878037  1.50000000
C   1175.76000000  10.10829251  1.50000000
C   1175.76000000  12.56780466  1.50000000
C   1175.76000000  15.02731681  1.50000000
C   1175.76000000  17.48682895  1.50000000
C   1175.76000000  19.94634110  1.50000000
C   1175.76000000  22.40585325  1.50000000
C   1175.76000000  24.86536539  1.50000000
C   1176.47000000  1.50000000  1.50000000
C   1176.47000000  3.95951215  1.50000000
C   1176.47000000  6.41902429  1.50000000
C   1176.47000000  8.87853644  1.50000000
C   1176.47000000  11.33804859  1.50000000
C   1176.47000000  13.79756073  1.50000000
C   1176.47000000  16.25707288  1.50000000
C   1176.47000000  18.71658503  1.50000000
C   1176.47000000  21.17609717  1.50000000
C   1176.47000000  23.63560932  1.50000000
C   1176.47000000  26.09512147  1.50000000
C   1177.89000000  1.50000000  1.50000000
C   1177.89000000  3.95951215  1.50000000
C   1177.89000000  6.41902429  1.50000000
C   1177.89000000  8.87853644  1.50000000
C   1177.89000000  11.33804859  1.50000000
C   1177.89000000  13.79756073  1.50000000
C   1177.89000000  16.25707288  1.50000000
C   1177.89000000  18.71658503  1.50000000
C   1177.89000000  21.17609717  1.50000000
C   1177.89000000  23.63560932  1.50000000
C   1177.89000000  26.09512147  1.50000000
C   1178.60000000  2.72975607  1.50000000
C   1178.60000000  5.18926822  1.50000000
C   1178.60000000  7.64878037  1.50000000
C   1178.60000000  10.10829251  1.50000000
C   1178.60000000  12.56780466  1.50000000
C   1178.60000000  15.02731681  1.50000000
C   1178.60000000  17.48682895  1.50000000
C   1178.60000000  19.94634110  1.50000000
C   1178.60000000  22.40585325  1.50000000
C   1178.60000000  24.86536539  1.50000000
C   1180.02000000  2.72975607  1.50000000
C   1180.02000000  5.18926822  1.50000000
C   1180.02000000  7.64878037  1.50000000
C   1180.02000000  10.10829251  1.50000000
C   1180.02000000  12.56780466  1.50000000
C   1180.02000000  15.02731681  1.50000000
C   1180.02000000  17.48682895  1.50000000
C   1180.02000000  19.94634110  1.50000000
C   1180.02000000  22.40585325  1.50000000
C   1180.02000000  24.86536539  1.50000000
C   1180.73000000  1.50000000  1.50000000
C   1180.73000000  3.95951215  1.50000000
C   1180.73000000  6.41902429  1.50000000
C   1180.73000000  8.87853644  1.50000000
C   1180.73000000  11.33804859  1.50000000
C   1180.73000000  13.79756073  1.50000000
C   1180.73000000  16.25707288  1.50000000
C   1180.73000000  18.71658503  1.50000000
C   1180.73000000  21.17609717  1.50000000
C   1180.73000000  23.63560932  1.50000000
C   1180.73000000  26.09512147  1.50000000
C   1182.15000000  1.50000000  1.50000000
C   1182.15000000  3.95951215  1.50000000
C   1182.15000000  6.41902429  1.50000000
C   1182.15000000  8.87853644  1.50000000
C   1182.15000000  11.33804859  1.50000000
C   1182.15000000  13.79756073  1.50000000
C   1182.15000000  16.25707288  1.50000000
C   1182.15000000  18.71658503  1.50000000
C   1182.15000000  21.17609717  1.50000000
C   1182.15000000  23.63560932  1.50000000
C   1182.15000000  26.09512147  1.50000000
C   1182.86000000  2.72975607  1.50000000
C   1182.86000000  5.18926822  1.50000000
C   1182.86000000  7.64878037  1.50000000
C   1182.86000000  10.10829251  1.50000000
C   1182.86000000  12.56780466  1.50000000
C   1182.86000000  15.02731681  1.50000000
C   1182.86000000  17.48682895  1.50000000
C   1182.86000000  19.94634110  1.50000000
C   1182.86000000  22.40585325  1.50000000
C   1182.86000000  24.86536539  1.50000000
C   1184.28000000  2.72975607  1.50000000
C   1184.28000000  5.18926822  1.50000000
C   1184.28000000  7.64878037  1.50000000
C   1184.28000000  10.10829251  1.50000000
C   1184.28000000  12.56780466  1.50000000
C   1184.28000000  15.02731681  1.50000000
C   1184.28000000  17.48682895  1.50000000
C   1184.28000000  19.94634110  1.50000000
C   1184.28000000  22.40585325  1.50000000
C   1184.28000000  24.86536539  1.50000000
C   1184.99000000  1.50000000  1.50000000
C   1184.99000000  3.95951215  1.50000000
C   1184.99000000  6.41902429  1.50000000
C   1184.99000000  8.87853644  1.50000000
C   1184.99000000  11.33804859  1.50000000
C   1184.99000000  13.79756073  1.50000000
C   1184.99000000  16.25707288  1.50000000
C   1184.99000000  18.71658503  1.50000000
C   1184.99000000  21.17609717  1.50000000
C   1184.99000000  23.63560932  1.50000000
C   1184.99000000  26.09512147  1.50000000
C   1186.41000000  1.50000000  1.50000000
C   1186.41000000  3.95951215  1.50000000
C   1186.41000000  6.41902429  1.50000000
C   1186.41000000  8.87853644  1.50000000
C   1186.41000000  11.33804859  1.50000000
C   1186.41000000  13.79756073  1.50000000
C   1186.41000000  16.25707288  1.50000000
C   1186.41000000  18.71658503  1.50000000
C   1186.41000000  21.17609717  1.50000000
C   1186.41000000  23.63560932  1.50000000
C   1186.41000000  26.09512147  1.50000000
C   1187.12000000  2.72975607  1.50000000
C   1187.12000000  5.18926822  1.50000000
C   1187.12000000  7.64878037  1.50000000
C   1187.12000000  10.10829251  1.50000000
C   1187.12000000  12.56780466  1.50000000
C   1187.12000000  15.02731681  1.50000000
C   1187.12000000  17.48682895  1.50000000
C   1187.12000000  19.94634110  1.50000000
C   1187.12000000  22.40585325  1.50000000
C   1187.12000000  24.86536539  1.50000000
C   1188.54000000  2.72975607  1.50000000
C   1188.54000000  5.18926822  1.50000000
C   1188.54000000  7.64878037  1.50000000
C   1188.54000000  10.10829251  1.50000000
C   1188.54000000  12.56780466  1.50000000
C   1188.54000000  15.02731681  1.50000000
C   1188.54000000  17.48682895  1.50000000
C   1188.54000000  19.94634110  1.50000000
C   1188.54000000  22.40585325  1.50000000
C   1188.54000000  24.86536539  1.50000000
C   1189.25000000  1.50000000  1.50000000
C   1189.25000000  3.95951215  1.50000000
C   1189.25000000  6.41902429  1.50000000
C   1189.25000000  8.87853644  1.50000000
C   1189.25000000  11.33804859  1.50000000
C   1189.25000000  13.79756073  1.50000000
C   1189.25000000  16.25707288  1.50000000
C   1189.25000000  18.71658503  1.50000000
C   1189.25000000  21.17609717  1.50000000
C   1189.25000000  23.63560932  1.50000000
C   1189.25000000  26.09512147  1.50000000
C   1190.67000000  1.50000000  1.50000000
C   1190.67000000  3.95951215  1.50000000
C   1190.67000000  6.41902429  1.50000000
C   1190.67000000  8.87853644  1.50000000
C   1190.67000000  11.33804859  1.50000000
C   1190.67000000  13.79756073  1.50000000
C   1190.67000000  16.25707288  1.50000000
C   1190.67000000  18.71658503  1.50000000
C   1190.67000000  21.17609717  1.50000000
C   1190.67000000  23.63560932  1.50000000
C   1190.67000000  26.09512147  1.50000000
C   1191.38000000  2.72975607  1.50000000
C   1191.38000000  5.18926822  1.50000000
C   1191.38000000  7.64878037  1.50000000
C   1191.38000000  10.10829251  1.50000000
C   1191.38000000  12.56780466  1.50000000
C   1191.38000000  15.02731681  1.50000000
C   1191.38000000  17.48682895  1.50000000
C   1191.38000000  19.94634110  1.50000000
C   1191.38000000  22.40585325  1.50000000
C   1191.38000000  24.86536539  1.50000000
C   1192.80000000  2.72975607  1.50000000
C   1192.80000000  5.18926822  1.50000000
C   1192.80000000  7.64878037  1.50000000
C   1192.80000000  10.10829251  1.50000000
C   1192.80000000  12.56780466  1.50000000
C   1192.80000000  15.02731681  1.50000000
C   1192.80000000  17.48682895  1.50000000
C   1192.80000000  19.94634110  1.50000000
C   1192.80000000  22.40585325  1.50000000
C   1192.80000000  24.86536539  1.50000000
C   1193.51000000  1.50000000  1.50000000
C   1193.51000000  3.95951215  1.50000000
C   1193.51000000  6.41902429  1.50000000
C   1193.51000000  8.87853644  1.50000000
C   1193.51000000  11.33804859  1.50000000
C   1193.51000000  13.79756073  1.50000000
C   1193.51000000  16.25707288  1.50000000
C   1193.51000000  18.71658503  1.50000000
C   1193.51000000  21.17609717  1.50000000
C   1193.51000000  23.63560932  1.50000000
C   1193.51000000  26.09512147  1.50000000
C   1194.93000000  1.50000000  1.50000000
C   1194.93000000  3.95951215  1.50000000
C   1194.93000000  6.41902429  1.50000000
C   1194.93000000  8.87853644  1.50000000
C   1194.93000000  11.33804859  1.50000000
C   1194.93000000  13.79756073  1.50000000
C   1194.93000000  16.25707288  1.50000000
C   1194.93000000  18.71658503  1.50000000
C   1194.93000000  21.17609717  1.50000000
C   1194.93000000  23.63560932  1.50000000
C   1194.93000000  26.09512147  1.50000000
C   1195.64000000  2.72975607  1.50000000
C   1195.64000000  5.18926822  1.50000000
C   1195.64000000  7.64878037  1.50000000
C   1195.64000000  10.10829251  1.50000000
C   1195.64000000  12.56780466  1.50000000
C   1195.64000000  15.02731681  1.50000000
C   1195.64000000  17.48682895  1.50000000
C   1195.64000000  19.94634110  1.50000000
C   1195.64000000  22.40585325  1.50000000
C   1195.64000000  24.86536539  1.50000000
C   1197.06000000  2.72975607  1.50000000
C   1197.06000000  5.18926822  1.50000000
C   1197.06000000  7.64878037  1.50000000
C   1197.06000000  10.10829251  1.50000000
C   1197.06000000  12.56780466  1.50000000
C   1197.06000000  15.02731681  1.50000000
C   1197.06000000  17.48682895  1.50000000
C   1197.06000000  19.94634110  1.50000000
C   1197.06000000  22.40585325  1.50000000
C   1197.06000000  24.86536539  1.50000000
C   1197.77000000  1.50000000  1.50000000
C   1197.77000000  3.95951215  1.50000000
C   1197.77000000  6.41902429  1.50000000
C   1197.77000000  8.87853644  1.50000000
C   1197.77000000  11.33804859  1.50000000
C   1197.77000000  13.79756073  1.50000000
C   1197.77000000  16.25707288  1.50000000
C   1197.77000000  18.71658503  1.50000000
C   1197.77000000  21.17609717  1.50000000
C   1197.77000000  23.63560932  1.50000000
C   1197.77000000  26.09512147  1.50000000
C   1199.19000000  1.50000000  1.50000000
C   1199.19000000  3.95951215  1.50000000
C   1199.19000000  6.41902429  1.50000000
C   1199.19000000  8.87853644  1.50000000
C   1199.19000000  11.33804859  1.50000000
C   1199.19000000  13.79756073  1.50000000
C   1199.19000000  16.25707288  1.50000000
C   1199.19000000  18.71658503  1.50000000
C   1199.19000000  21.17609717  1.50000000
C   1199.19000000  23.63560932  1.50000000
C   1199.19000000  26.09512147  1.50000000
C   1199.90000000  2.72975607  1.50000000
C   1199.90000000  5.18926822  1.50000000
C   1199.90000000  7.64878037  1.50000000
C   1199.90000000  10.10829251  1.50000000
C   1199.90000000  12.56780466  1.50000000
C   1199.90000000  15.02731681  1.50000000
C   1199.90000000  17.48682895  1.50000000
C   1199.90000000  19.94634110  1.50000000
C   1199.90000000  22.40585325  1.50000000
C   1199.90000000  24.86536539  1.50000000
C   1201.32000000  2.72975607  1.50000000
C   1201.32000000  5.18926822  1.50000000
C   1201.32000000  7.64878037  1.50000000
C   1201.32000000  10.10829251  1.50000000
C   1201.32000000  12.56780466  1.50000000
C   1201.32000000  15.02731681  1.50000000
C   1201.32000000  17.48682895  1.50000000
C   1201.32000000  19.94634110  1.50000000
C   1201.32000000  22.40585325  1.50000000
C   1201.32000000  24.86536539  1.50000000
C   1202.03000000  1.50000000  1.50000000
C   1202.03000000  3.95951215  1.50000000
C   1202.03000000  6.41902429  1.50000000
C   1202.03000000  8.87853644  1.50000000
C   1202.03000000  11.33804859  1.50000000
C   1202.03000000  13.79756073  1.50000000
C   1202.03000000  16.25707288  1.50000000
C   1202.03000000  18.71658503  1.50000000
C   1202.03000000  21.17609717  1.50000000
C   1202.03000000  23.63560932  1.50000000
C   1202.03000000  26.09512147  1.50000000
C   1203.45000000  1.50000000  1.50000000
C   1203.45000000  3.95951215  1.50000000
C   1203.45000000  6.41902429  1.50000000
C   1203.45000000  8.87853644  1.50000000
C   1203.45000000  11.33804859  1.50000000
C   1203.45000000  13.79756073  1.50000000
C   1203.45000000  16.25707288  1.50000000
C   1203.45000000  18.71658503  1.50000000
C   1203.45000000  21.17609717  1.50000000
C   1203.45000000  23.63560932  1.50000000
C   1203.45000000  26.09512147  1.50000000
C   1204.16000000  2.72975607  1.50000000
C   1204.16000000  5.18926822  1.50000000
C   1204.16000000  7.64878037  1.50000000
C   1204.16000000  10.10829251  1.50000000
C   1204.16000000  12.56780466  1.50000000
C   1204.16000000  15.02731681  1.50000000
C   1204.16000000  17.48682895  1.50000000
C   1204.16000000  19.94634110  1.50000000
C   1204.16000000  22.40585325  1.50000000
C   1204.16000000  24.86536539  1.50000000
C   1205.58000000  2.72975607  1.50000000
C   1205.58000000  5.18926822  1.50000000
C   1205.58000000  7.64878037  1.50000000
C   1205.58000000  10.10829251  1.50000000
C   1205.58000000  12.56780466  1.50000000
C   1205.58000000  15.02731681  1.50000000
C   1205.58000000  17.48682895  1.50000000
C   1205.58000000  19.94634110  1.50000000
C   1205.58000000  22.40585325  1.50000000
C   1205.58000000  24.86536539  1.50000000
C   1206.29000000  1.50000000  1.50000000
C   1206.29000000  3.95951215  1.50000000
C   1206.29000000  6.41902429  1.50000000
C   1206.29000000  8.87853644  1.50000000
C   1206.29000000  11.33804859  1.50000000
C   1206.29000000  13.79756073  1.50000000
C   1206.29000000  16.25707288  1.50000000
C   1206.29000000  18.71658503  1.50000000
C   1206.29000000  21.17609717  1.50000000
C   1206.29000000  23.63560932  1.50000000
C   1206.29000000  26.09512147  1.50000000
C   1207.71000000  1.50000000  1.50000000
C   1207.71000000  3.95951215  1.50000000
C   1207.71000000  6.41902429  1.50000000
C   1207.71000000  8.87853644  1.50000000
C   1207.71000000  11.33804859  1.50000000
C   1207.71000000  13.79756073  1.50000000
C   1207.71000000  16.25707288  1.50000000
C   1207.71000000  18.71658503  1.50000000
C   1207.71000000  21.17609717  1.50000000
C   1207.71000000  23.63560932  1.50000000
C   1207.71000000  26.09512147  1.50000000
C   1208.42000000  2.72975607  1.50000000
C   1208.42000000  5.18926822  1.50000000
C   1208.42000000  7.64878037  1.50000000
C   1208.42000000  10.10829251  1.50000000
C   1208.42000000  12.56780466  1.50000000
C   1208.42000000  15.02731681  1.50000000
C   1208.42000000  17.48682895  1.50000000
C   1208.42000000  19.94634110  1.50000000
C   1208.42000000  22.40585325  1.50000000
C   1208.42000000  24.86536539  1.50000000
C   1209.84000000  2.72975607  1.50000000
C   1209.84000000  5.18926822  1.50000000
C   1209.84000000  7.64878037  1.50000000
C   1209.84000000  10.10829251  1.50000000
C   1209.84000000  12.56780466  1.50000000
C   1209.84000000  15.02731681  1.50000000
C   1209.84000000  17.48682895  1.50000000
C   1209.84000000  19.94634110  1.50000000
C   1209.84000000  22.40585325  1.50000000
C   1209.84000000  24.86536539  1.50000000
C   1210.55000000  1.50000000  1.50000000
C   1210.55000000  3.95951215  1.50000000
C   1210.55000000  6.41902429  1.50000000
C   1210.55000000  8.87853644  1.50000000
C   1210.55000000  11.33804859  1.50000000
C   1210.55000000  13.79756073  1.50000000
C   1210.55000000  16.25707288  1.50000000
C   1210.55000000  18.71658503  1.50000000
C   1210.55000000  21.17609717  1.50000000
C   1210.55000000  23.63560932  1.50000000
C   1210.55000000  26.09512147  1.50000000
C   1211.97000000  1.50000000  1.50000000
C   1211.97000000  3.95951215  1.50000000
C   1211.97000000  6.41902429  1.50000000
C   1211.97000000  8.87853644  1.50000000
C   1211.97000000  11.33804859  1.50000000
C   1211.97000000  13.79756073  1.50000000
C   1211.97000000  16.25707288  1.50000000
C   1211.97000000  18.71658503  1.50000000
C   1211.97000000  21.17609717  1.50000000
C   1211.97000000  23.63560932  1.50000000
C   1211.97000000  26.09512147  1.50000000
C   1212.68000000  2.72975607  1.50000000
C   1212.68000000  5.18926822  1.50000000
C   1212.68000000  7.64878037  1.50000000
C   1212.68000000  10.10829251  1.50000000
C   1212.68000000  12.56780466  1.50000000
C   1212.68000000  15.02731681  1.50000000
C   1212.68000000  17.48682895  1.50000000
C   1212.68000000  19.94634110  1.50000000
C   1212.68000000  22.40585325  1.50000000
C   1212.68000000  24.86536539  1.50000000
C   1214.10000000  2.72975607  1.50000000
C   1214.10000000  5.18926822  1.50000000
C   1214.10000000  7.64878037  1.50000000
C   1214.10000000  10.10829251  1.50000000
C   1214.10000000  12.56780466  1.50000000
C   1214.10000000  15.02731681  1.50000000
C   1214.10000000  17.48682895  1.50000000
C   1214.10000000  19.94634110  1.50000000
C   1214.10000000  22.40585325  1.50000000
C   1214.10000000  24.86536539  1.50000000
C   1214.81000000  1.50000000  1.50000000
C   1214.81000000  3.95951215  1.50000000
C   1214.81000000  6.41902429  1.50000000
C   1214.81000000  8.87853644  1.50000000
C   1214.81000000  11.33804859  1.50000000
C   1214.81000000  13.79756073  1.50000000
C   1214.81000000  16.25707288  1.50000000
C   1214.81000000  18.71658503  1.50000000
C   1214.81000000  21.17609717  1.50000000
C   1214.81000000  23.63560932  1.50000000
C   1214.81000000  26.09512147  1.50000000
C   1216.23000000  1.50000000  1.50000000
C   1216.23000000  3.95951215  1.50000000
C   1216.23000000  6.41902429  1.50000000
C   1216.23000000  8.87853644  1.50000000
C   1216.23000000  11.33804859  1.50000000
C   1216.23000000  13.79756073  1.50000000
C   1216.23000000  16.25707288  1.50000000
C   1216.23000000  18.71658503  1.50000000
C   1216.23000000  21.17609717  1.50000000
C   1216.23000000  23.63560932  1.50000000
C   1216.23000000  26.09512147  1.50000000
C   1216.94000000  2.72975607  1.50000000
C   1216.94000000  5.18926822  1.50000000
C   1216.94000000  7.64878037  1.50000000
C   1216.94000000  10.10829251  1.50000000
C   1216.94000000  12.56780466  1.50000000
C   1216.94000000  15.02731681  1.50000000
C   1216.94000000  17.48682895  1.50000000
C   1216.94000000  19.94634110  1.50000000
C   1216.94000000  22.40585325  1.50000000
C   1216.94000000  24.86536539  1.50000000
C   1218.36000000  2.72975607  1.50000000
C   1218.36000000  5.18926822  1.50000000
C   1218.36000000  7.64878037  1.50000000
C   1218.36000000  10.10829251  1.50000000
C   1218.36000000  12.56780466  1.50000000
C   1218.36000000  15.02731681  1.50000000
C   1218.36000000  17.48682895  1.50000000
C   1218.36000000  19.94634110  1.50000000
C   1218.36000000  22.40585325  1.50000000
C   1218.36000000  24.86536539  1.50000000
C   1219.07000000  1.50000000  1.50000000
C   1219.07000000  3.95951215  1.50000000
C   1219.07000000  6.41902429  1.50000000
C   1219.07000000  8.87853644  1.50000000
C   1219.07000000  11.33804859  1.50000000
C   1219.07000000  13.79756073  1.50000000
C   1219.07000000  16.25707288  1.50000000
C   1219.07000000  18.71658503  1.50000000
C   1219.07000000  21.17609717  1.50000000
C   1219.07000000  23.63560932  1.50000000
C   1219.07000000  26.09512147  1.50000000
C   1220.49000000  1.50000000  1.50000000
C   1220.49000000  3.95951215  1.50000000
C   1220.49000000  6.41902429  1.50000000
C   1220.49000000  8.87853644  1.50000000
C   1220.49000000  11.33804859  1.50000000
C   1220.49000000  13.79756073  1.50000000
C   1220.49000000  16.25707288  1.50000000
C   1220.49000000  18.71658503  1.50000000
C   1220.49000000  21.17609717  1.50000000
C   1220.49000000  23.63560932  1.50000000
C   1220.49000000  26.09512147  1.50000000
C   1221.20000000  2.72975607  1.50000000
C   1221.20000000  5.18926822  1.50000000
C   1221.20000000  7.64878037  1.50000000
C   1221.20000000  10.10829251  1.50000000
C   1221.20000000  12.56780466  1.50000000
C   1221.20000000  15.02731681  1.50000000
C   1221.20000000  17.48682895  1.50000000
C   1221.20000000  19.94634110  1.50000000
C   1221.20000000  22.40585325  1.50000000
C   1221.20000000  24.86536539  1.50000000
C   1222.62000000  2.72975607  1.50000000
C   1222.62000000  5.18926822  1.50000000
C   1222.62000000  7.64878037  1.50000000
C   1222.62000000  10.10829251  1.50000000
C   1222.62000000  12.56780466  1.50000000
C   1222.62000000  15.02731681  1.50000000
C   1222.62000000  17.48682895  1.50000000
C   1222.62000000  19.94634110  1.50000000
C   1222.62000000  22.40585325  1.50000000
C   1222.62000000  24.86536539  1.50000000
C   1223.33000000  1.50000000  1.50000000
C   1223.33000000  3.95951215  1.50000000
C   1223.33000000  6.41902429  1.50000000
C   1223.33000000  8.87853644  1.50000000
C   1223.33000000  11.33804859  1.50000000
C   1223.33000000  13.79756073  1.50000000
C   1223.33000000  16.25707288  1.50000000
C   1223.33000000  18.71658503  1.50000000
C   1223.33000000  21.17609717  1.50000000
C   1223.33000000  23.63560932  1.50000000
C   1223.33000000  26.09512147  1.50000000
C   1224.75000000  1.50000000  1.50000000
C   1224.75000000  3.95951215  1.50000000
C   1224.75000000  6.41902429  1.50000000
C   1224.75000000  8.87853644  1.50000000
C   1224.75000000  11.33804859  1.50000000
C   1224.75000000  13.79756073  1.50000000
C   1224.75000000  16.25707288  1.50000000
C   1224.75000000  18.71658503  1.50000000
C   1224.75000000  21.17609717  1.50000000
C   1224.75000000  23.63560932  1.50000000
C   1224.75000000  26.09512147  1.50000000
C   1225.46000000  2.72975607  1.50000000
C   1225.46000000  5.18926822  1.50000000
C   1225.46000000  7.64878037  1.50000000
C   1225.46000000  10.10829251  1.50000000
C   1225.46000000  12.56780466  1.50000000
C   1225.46000000  15.02731681  1.50000000
C   1225.46000000  17.48682895  1.50000000
C   1225.46000000  19.94634110  1.50000000
C   1225.46000000  22.40585325  1.50000000
C   1225.46000000  24.86536539  1.50000000
C   1226.88000000  2.72975607  1.50000000
C   1226.88000000  5.18926822  1.50000000
C   1226.88000000  7.64878037  1.50000000
C   1226.88000000  10.10829251  1.50000000
C   1226.88000000  12.56780466  1.50000000
C   1226.88000000  15.02731681  1.50000000
C   1226.88000000  17.48682895  1.50000000
C   1226.88000000  19.94634110  1.50000000
C   1226.88000000  22.40585325  1.50000000
C   1226.88000000  24.86536539  1.50000000
C   1227.59000000  1.50000000  1.50000000
C   1227.59000000  3.95951215  1.50000000
C   1227.59000000  6.41902429  1.50000000
C   1227.59000000  8.87853644  1.50000000
C   1227.59000000  11.33804859  1.50000000
C   1227.59000000  13.79756073  1.50000000
C   1227.59000000  16.25707288  1.50000000
C   1227.59000000  18.71658503  1.50000000
C   1227.59000000  21.17609717  1.50000000
C   1227.59000000  23.63560932  1.50000000
C   1227.59000000  26.09512147  1.50000000
C   1229.01000000  1.50000000  1.50000000
C   1229.01000000  3.95951215  1.50000000
C   1229.01000000  6.41902429  1.50000000
C   1229.01000000  8.87853644  1.50000000
C   1229.01000000  11.33804859  1.50000000
C   1229.01000000  13.79756073  1.50000000
C   1229.01000000  16.25707288  1.50000000
C   1229.01000000  18.71658503  1.50000000
C   1229.01000000  21.17609717  1.50000000
C   1229.01000000  23.63560932  1.50000000
C   1229.01000000  26.09512147  1.50000000
C   1229.72000000  2.72975607  1.50000000
C   1229.72000000  5.18926822  1.50000000
C   1229.72000000  7.64878037  1.50000000
C   1229.72000000  10.10829251  1.50000000
C   1229.72000000  12.56780466  1.50000000
C   1229.72000000  15.02731681  1.50000000
C   1229.72000000  17.48682895  1.50000000
C   1229.72000000  19.94634110  1.50000000
C   1229.72000000  22.40585325  1.50000000
C   1229.72000000  24.86536539  1.50000000
C   1231.14000000  2.72975607  1.50000000
C   1231.14000000  5.18926822  1.50000000
C   1231.14000000  7.64878037  1.50000000
C   1231.14000000  10.10829251  1.50000000
C   1231.14000000  12.56780466  1.50000000
C   1231.14000000  15.02731681  1.50000000
C   1231.14000000  17.48682895  1.50000000
C   1231.14000000  19.94634110  1.50000000
C   1231.14000000  22.40585325  1.50000000
C   1231.14000000  24.86536539  1.50000000
C   1231.85000000  1.50000000  1.50000000
C   1231.85000000  3.95951215  1.50000000
C   1231.85000000  6.41902429  1.50000000
C   1231.85000000  8.87853644  1.50000000
C   1231.85000000  11.33804859  1.50000000
C   1231.85000000  13.79756073  1.50000000
C   1231.85000000  16.25707288  1.50000000
C   1231.85000000  18.71658503  1.50000000
C   1231.85000000  21.17609717  1.50000000
C   1231.85000000  23.63560932  1.50000000
C   1231.85000000  26.09512147  1.50000000
C   1233.27000000  1.50000000  1.50000000
C   1233.27000000  3.95951215  1.50000000
C   1233.27000000  6.41902429  1.50000000
C   1233.27000000  8.87853644  1.50000000
C   1233.27000000  11.33804859  1.50000000
C   1233.27000000  13.79756073  1.50000000
C   1233.27000000  16.25707288  1.50000000
C   1233.27000000  18.71658503  1.50000000
C   1233.27000000  21.17609717  1.50000000
C   1233.27000000  23.63560932  1.50000000
C   1233.27000000  26.09512147  1.50000000
C   1233.98000000  2.72975607  1.50000000
C   1233.98000000  5.18926822  1.50000000
C   1233.98000000  7.64878037  1.50000000
C   1233.98000000  10.10829251  1.50000000
C   1233.98000000  12.56780466  1.50000000
C   1233.98000000  15.02731681  1.50000000
C   1233.98000000  17.48682895  1.50000000
C   1233.98000000  19.94634110  1.50000000
C   1233.98000000  22.40585325  1.50000000
C   1233.98000000  24.86536539  1.50000000
C   1235.40000000  2.72975607  1.50000000
C   1235.40000000  5.18926822  1.50000000
C   1235.40000000  7.64878037  1.50000000
C   1235.40000000  10.10829251  1.50000000
C   1235.40000000  12.56780466  1.50000000
C   1235.40000000  15.02731681  1.50000000
C   1235.40000000  17.48682895  1.50000000
C   1235.40000000  19.94634110  1.50000000
C   1235.40000000  22.40585325  1.50000000
C   1235.40000000  24.86536539  1.50000000
C   1236.11000000  1.50000000  1.50000000
C   1236.11000000  3.95951215  1.50000000
C   1236.11000000  6.41902429  1.50000000
C   1236.11000000  8.87853644  1.50000000
C   1236.11000000  11.33804859  1.50000000
C   1236.11000000  13.79756073  1.50000000
C   1236.11000000  16.25707288  1.50000000
C   1236.11000000  18.71658503  1.50000000
C   1236.11000000  21.17609717  1.50000000
C   1236.11000000  23.63560932  1.50000000
C   1236.11000000  26.09512147  1.50000000
C   1237.53000000  1.50000000  1.50000000
C   1237.53000000  3.95951215  1.50000000
C   1237.53000000  6.41902429  1.50000000
C   1237.53000000  8.87853644  1.50000000
C   1237.53000000  11.33804859  1.50000000
C   1237.53000000  13.79756073  1.50000000
C   1237.53000000  16.25707288  1.50000000
C   1237.53000000  18.71658503  1.50000000
C   1237.53000000  21.17609717  1.50000000
C   1237.53000000  23.63560932  1.50000000
C   1237.53000000  26.09512147  1.50000000
C   1238.24000000  2.72975607  1.50000000
C   1238.24000000  5.18926822  1.50000000
C   1238.24000000  7.64878037  1.50000000
C   1238.24000000  10.10829251  1.50000000
C   1238.24000000  12.56780466  1.50000000
C   1238.24000000  15.02731681  1.50000000
C   1238.24000000  17.48682895  1.50000000
C   1238.24000000  19.94634110  1.50000000
C   1238.24000000  22.40585325  1.50000000
C   1238.24000000  24.86536539  1.50000000
C   1239.66000000  2.72975607  1.50000000
C   1239.66000000  5.18926822  1.50000000
C   1239.66000000  7.64878037  1.50000000
C   1239.66000000  10.10829251  1.50000000
C   1239.66000000  12.56780466  1.50000000
C   1239.66000000  15.02731681  1.50000000
C   1239.66000000  17.48682895  1.50000000
C   1239.66000000  19.94634110  1.50000000
C   1239.66000000  22.40585325  1.50000000
C   1239.66000000  24.86536539  1.50000000
C   1240.37000000  1.50000000  1.50000000
C   1240.37000000  3.95951215  1.50000000
C   1240.37000000  6.41902429  1.50000000
C   1240.37000000  8.87853644  1.50000000
C   1240.37000000  11.33804859  1.50000000
C   1240.37000000  13.79756073  1.50000000
C   1240.37000000  16.25707288  1.50000000
C   1240.37000000  18.71658503  1.50000000
C   1240.37000000  21.17609717  1.50000000
C   1240.37000000  23.63560932  1.50000000
C   1240.37000000  26.09512147  1.50000000
C   1241.79000000  1.50000000  1.50000000
C   1241.79000000  3.95951215  1.50000000
C   1241.79000000  6.41902429  1.50000000
C   1241.79000000  8.87853644  1.50000000
C   1241.79000000  11.33804859  1.50000000
C   1241.79000000  13.79756073  1.50000000
C   1241.79000000  16.25707288  1.50000000
C   1241.79000000  18.71658503  1.50000000
C   1241.79000000  21.17609717  1.50000000
C   1241.79000000  23.63560932  1.50000000
C   1241.79000000  26.09512147  1.50000000
C   1242.50000000  2.72975607  1.50000000
C   1242.50000000  5.18926822  1.50000000
C   1242.50000000  7.64878037  1.50000000
C   1242.50000000  10.10829251  1.50000000
C   1242.50000000  12.56780466  1.50000000
C   1242.50000000  15.02731681  1.50000000
C   1242.50000000  17.48682895  1.50000000
C   1242.50000000  19.94634110  1.50000000
C   1242.50000000  22.40585325  1.50000000
C   1242.50000000  24.86536539  1.50000000
C   1243.92000000  2.72975607  1.50000000
C   1243.92000000  5.18926822  1.50000000
C   1243.92000000  7.64878037  1.50000000
C   1243.92000000  10.10829251  1.50000000
C   1243.92000000  12.56780466  1.50000000
C   1243.92000000  15.02731681  1.50000000
C   1243.92000000  17.48682895  1.50000000
C   1243.92000000  19.94634110  1.50000000
C   1243.92000000  22.40585325  1.50000000
C   1243.92000000  24.86536539  1.50000000
C   1244.63000000  1.50000000  1.50000000
C   1244.63000000  3.95951215  1.50000000
C   1244.63000000  6.41902429  1.50000000
C   1244.63000000  8.87853644  1.50000000
C   1244.63000000  11.33804859  1.50000000
C   1244.63000000  13.79756073  1.50000000
C   1244.63000000  16.25707288  1.50000000
C   1244.63000000  18.71658503  1.50000000
C   1244.63000000  21.17609717  1.50000000
C   1244.63000000  23.63560932  1.50000000
C   1244.63000000  26.09512147  1.50000000
C   1246.05000000  1.50000000  1.50000000
C   1246.05000000  3.95951215  1.50000000
C   1246.05000000  6.41902429  1.50000000
C   1246.05000000  8.87853644  1.50000000
C   1246.05000000  11.33804859  1.50000000
C   1246.05000000  13.79756073  1.50000000
C   1246.05000000  16.25707288  1.50000000
C   1246.05000000  18.71658503  1.50000000
C   1246.05000000  21.17609717  1.50000000
C   1246.05000000  23.63560932  1.50000000
C   1246.05000000  26.09512147  1.50000000
C   1246.76000000  2.72975607  1.50000000
C   1246.76000000  5.18926822  1.50000000
C   1246.76000000  7.64878037  1.50000000
C   1246.76000000  10.10829251  1.50000000
C   1246.76000000  12.56780466  1.50000000
C   1246.76000000  15.02731681  1.50000000
C   1246.76000000  17.48682895  1.50000000
C   1246.76000000  19.94634110  1.50000000
C   1246.76000000  22.40585325  1.50000000
C   1246.76000000  24.86536539  1.50000000
C   1248.18000000  2.72975607  1.50000000
C   1248.18000000  5.18926822  1.50000000
C   1248.18000000  7.64878037  1.50000000
C   1248.18000000  10.10829251  1.50000000
C   1248.18000000  12.56780466  1.50000000
C   1248.18000000  15.02731681  1.50000000
C   1248.18000000  17.48682895  1.50000000
C   1248.18000000  19.94634110  1.50000000
C   1248.18000000  22.40585325  1.50000000
C   1248.18000000  24.86536539  1.50000000
C   1248.89000000  1.50000000  1.50000000
C   1248.89000000  3.95951215  1.50000000
C   1248.89000000  6.41902429  1.50000000
C   1248.89000000  8.87853644  1.50000000
C   1248.89000000  11.33804859  1.50000000
C   1248.89000000  13.79756073  1.50000000
C   1248.89000000  16.25707288  1.50000000
C   1248.89000000  18.71658503  1.50000000
C   1248.89000000  21.17609717  1.50000000
C   1248.89000000  23.63560932  1.50000000
C   1248.89000000  26.09512147  1.50000000
C   1250.31000000  1.50000000  1.50000000
C   1250.31000000  3.95951215  1.50000000
C   1250.31000000  6.41902429  1.50000000
C   1250.31000000  8.87853644  1.50000000
C   1250.31000000  11.33804859  1.50000000
C   1250.31000000  13.79756073  1.50000000
C   1250.31000000  16.25707288  1.50000000
C   1250.31000000  18.71658503  1.50000000
C   1250.31000000  21.17609717  1.50000000
C   1250.31000000  23.63560932  1.50000000
C   1250.31000000  26.09512147  1.50000000
C   1251.02000000  2.72975607  1.50000000
C   1251.02000000  5.18926822  1.50000000
C   1251.02000000  7.64878037  1.50000000
C   1251.02000000  10.10829251  1.50000000
C   1251.02000000  12.56780466  1.50000000
C   1251.02000000  15.02731681  1.50000000
C   1251.02000000  17.48682895  1.50000000
C   1251.02000000  19.94634110  1.50000000
C   1251.02000000  22.40585325  1.50000000
C   1251.02000000  24.86536539  1.50000000
C   1252.44000000  2.72975607  1.50000000
C   1252.44000000  5.18926822  1.50000000
C   1252.44000000  7.64878037  1.50000000
C   1252.44000000  10.10829251  1.50000000
C   1252.44000000  12.56780466  1.50000000
C   1252.44000000  15.02731681  1.50000000
C   1252.44000000  17.48682895  1.50000000
C   1252.44000000  19.94634110  1.50000000
C   1252.44000000  22.40585325  1.50000000
C   1252.44000000  24.86536539  1.50000000
C   1253.15000000  1.50000000  1.50000000
C   1253.15000000  3.95951215  1.50000000
C   1253.15000000  6.41902429  1.50000000
C   1253.15000000  8.87853644  1.50000000
C   1253.15000000  11.33804859  1.50000000
C   1253.15000000  13.79756073  1.50000000
C   1253.15000000  16.25707288  1.50000000
C   1253.15000000  18.71658503  1.50000000
C   1253.15000000  21.17609717  1.50000000
C   1253.15000000  23.63560932  1.50000000
C   1253.15000000  26.09512147  1.50000000
C   1254.57000000  1.50000000  1.50000000
C   1254.57000000  3.95951215  1.50000000
C   1254.57000000  6.41902429  1.50000000
C   1254.57000000  8.87853644  1.50000000
C   1254.57000000  11.33804859  1.50000000
C   1254.57000000  13.79756073  1.50000000
C   1254.57000000  16.25707288  1.50000000
C   1254.57000000  18.71658503  1.50000000
C   1254.57000000  21.17609717  1.50000000
C   1254.57000000  23.63560932  1.50000000
C   1254.57000000  26.09512147  1.50000000
C   1255.28000000  2.72975607  1.50000000
C   1255.28000000  5.18926822  1.50000000
C   1255.28000000  7.64878037  1.50000000
C   1255.28000000  10.10829251  1.50000000
C   1255.28000000  12.56780466  1.50000000
C   1255.28000000  15.02731681  1.50000000
C   1255.28000000  17.48682895  1.50000000
C   1255.28000000  19.94634110  1.50000000
C   1255.28000000  22.40585325  1.50000000
C   1255.28000000  24.86536539  1.50000000
C   1256.70000000  2.72975607  1.50000000
C   1256.70000000  5.18926822  1.50000000
C   1256.70000000  7.64878037  1.50000000
C   1256.70000000  10.10829251  1.50000000
C   1256.70000000  12.56780466  1.50000000
C   1256.70000000  15.02731681  1.50000000
C   1256.70000000  17.48682895  1.50000000
C   1256.70000000  19.94634110  1.50000000
C   1256.70000000  22.40585325  1.50000000
C   1256.70000000  24.86536539  1.50000000
C   1257.41000000  1.50000000  1.50000000
C   1257.41000000  3.95951215  1.50000000
C   1257.41000000  6.41902429  1.50000000
C   1257.41000000  8.87853644  1.50000000
C   1257.41000000  11.33804859  1.50000000
C   1257.41000000  13.79756073  1.50000000
C   1257.41000000  16.25707288  1.50000000
C   1257.41000000  18.71658503  1.50000000
C   1257.41000000  21.17609717  1.50000000
C   1257.41000000  23.63560932  1.50000000
C   1257.41000000  26.09512147  1.50000000
C   1258.83000000  1.50000000  1.50000000
C   1258.83000000  3.95951215  1.50000000
C   1258.83000000  6.41902429  1.50000000
C   1258.83000000  8.87853644  1.50000000
C   1258.83000000  11.33804859  1.50000000
C   1258.83000000  13.79756073  1.50000000
C   1258.83000000  16.25707288  1.50000000
C   1258.83000000  18.71658503  1.50000000
C   1258.83000000  21.17609717  1.50000000
C   1258.83000000  23.63560932  1.50000000
C   1258.83000000  26.09512147  1.50000000
C   1259.54000000  2.72975607  1.50000000
C   1259.54000000  5.18926822  1.50000000
C   1259.54000000  7.64878037  1.50000000
C   1259.54000000  10.10829251  1.50000000
C   1259.54000000  12.56780466  1.50000000
C   1259.54000000  15.02731681  1.50000000
C   1259.54000000  17.48682895  1.50000000
C   1259.54000000  19.94634110  1.50000000
C   1259.54000000  22.40585325  1.50000000
C   1259.54000000  24.86536539  1.50000000
C   1260.96000000  2.72975607  1.50000000
C   1260.96000000  5.18926822  1.50000000
C   1260.96000000  7.64878037  1.50000000
C   1260.96000000  10.10829251  1.50000000
C   1260.96000000  12.56780466  1.50000000
C   1260.96000000  15.02731681  1.50000000
C   1260.96000000  17.48682895  1.50000000
C   1260.96000000  19.94634110  1.50000000
C   1260.96000000  22.40585325  1.50000000
C   1260.96000000  24.86536539  1.50000000
C   1261.67000000  1.50000000  1.50000000
C   1261.67000000  3.95951215  1.50000000
C   1261.67000000  6.41902429  1.50000000
C   1261.67000000  8.87853644  1.50000000
C   1261.67000000  11.33804859  1.50000000
C   1261.67000000  13.79756073  1.50000000
C   1261.67000000  16.25707288  1.50000000
C   1261.67000000  18.71658503  1.50000000
C   1261.67000000  21.17609717  1.50000000
C   1261.67000000  23.63560932  1.50000000
C   1261.67000000  26.09512147  1.50000000
C   1263.09000000  1.50000000  1.50000000
C   1263.09000000  3.95951215  1.50000000
C   1263.09000000  6.41902429  1.50000000
C   1263.09000000  8.87853644  1.50000000
C   1263.09000000  11.33804859  1.50000000
C   1263.09000000  13.79756073  1.50000000
C   1263.09000000  16.25707288  1.50000000
C   1263.09000000  18.71658503  1.50000000
C   1263.09000000  21.17609717  1.50000000
C   1263.09000000  23.63560932  1.50000000
C   1263.09000000  26.09512147  1.50000000
C   1263.80000000  2.72975607  1.50000000
C   1263.80000000  5.18926822  1.50000000
C   1263.80000000  7.64878037  1.50000000
C   1263.80000000  10.10829251  1.50000000
C   1263.80000000  12.56780466  1.50000000
C   1263.80000000  15.02731681  1.50000000
C   1263.80000000  17.48682895  1.50000000
C   1263.80000000  19.94634110  1.50000000
C   1263.80000000  22.40585325  1.50000000
C   1263.80000000  24.86536539  1.50000000
C   1265.22000000  2.72975607  1.50000000
C   1265.22000000  5.18926822  1.50000000
C   1265.22000000  7.64878037  1.50000000
C   1265.22000000  10.10829251  1.50000000
C   1265.22000000  12.56780466  1.50000000
C   1265.22000000  15.02731681  1.50000000
C   1265.22000000  17.48682895  1.50000000
C   1265.22000000  19.94634110  1.50000000
C   1265.22000000  22.40585325  1.50000000
C   1265.22000000  24.86536539  1.50000000
C   1265.93000000  1.50000000  1.50000000
C   1265.93000000  3.95951215  1.50000000
C   1265.93000000  6.41902429  1.50000000
C   1265.93000000  8.87853644  1.50000000
C   1265.93000000  11.33804859  1.50000000
C   1265.93000000  13.79756073  1.50000000
C   1265.93000000  16.25707288  1.50000000
C   1265.93000000  18.71658503  1.50000000
C   1265.93000000  21.17609717  1.50000000
C   1265.93000000  23.63560932  1.50000000
C   1265.93000000  26.09512147  1.50000000
C   1267.35000000  1.50000000  1.50000000
C   1267.35000000  3.95951215  1.50000000
C   1267.35000000  6.41902429  1.50000000
C   1267.35000000  8.87853644  1.50000000
C   1267.35000000  11.33804859  1.50000000
C   1267.35000000  13.79756073  1.50000000
C   1267.35000000  16.25707288  1.50000000
C   1267.35000000  18.71658503  1.50000000
C   1267.35000000  21.17609717  1.50000000
C   1267.35000000  23.63560932  1.50000000
C   1267.35000000  26.09512147  1.50000000
C   1268.06000000  2.72975607  1.50000000
C   1268.06000000  5.18926822  1.50000000
C   1268.06000000  7.64878037  1.50000000
C   1268.06000000  10.10829251  1.50000000
C   1268.06000000  12.56780466  1.50000000
C   1268.06000000  15.02731681  1.50000000
C   1268.06000000  17.48682895  1.50000000
C   1268.06000000  19.94634110  1.50000000
C   1268.06000000  22.40585325  1.50000000
C   1268.06000000  24.86536539  1.50000000
C   1269.48000000  2.72975607  1.50000000
C   1269.48000000  5.18926822  1.50000000
C   1269.48000000  7.64878037  1.50000000
C   1269.48000000  10.10829251  1.50000000
C   1269.48000000  12.56780466  1.50000000
C   1269.48000000  15.02731681  1.50000000
C   1269.48000000  17.48682895  1.50000000
C   1269.48000000  19.94634110  1.50000000
C   1269.48000000  22.40585325  1.50000000
C   1269.48000000  24.86536539  1.50000000
C   1270.19000000  1.50000000  1.50000000
C   1270.19000000  3.95951215  1.50000000
C   1270.19000000  6.41902429  1.50000000
C   1270.19000000  8.87853644  1.50000000
C   1270.19000000  11.33804859  1.50000000
C   1270.19000000  13.79756073  1.50000000
C   1270.19000000  16.25707288  1.50000000
C   1270.19000000  18.71658503  1.50000000
C   1270.19000000  21.17609717  1.50000000
C   1270.19000000  23.63560932  1.50000000
C   1270.19000000  26.09512147  1.50000000
C   1271.61000000  1.50000000  1.50000000
C   1271.61000000  3.95951215  1.50000000
C   1271.61000000  6.41902429  1.50000000
C   1271.61000000  8.87853644  1.50000000
C   1271.61000000  11.33804859  1.50000000
C   1271.61000000  13.79756073  1.50000000
C   1271.61000000  16.25707288  1.50000000
C   1271.61000000  18.71658503  1.50000000
C   1271.61000000  21.17609717  1.50000000
C   1271.61000000  23.63560932  1.50000000
C   1271.61000000  26.09512147  1.50000000
C   1272.32000000  2.72975607  1.50000000
C   1272.32000000  5.18926822  1.50000000
C   1272.32000000  7.64878037  1.50000000
C   1272.32000000  10.10829251  1.50000000
C   1272.32000000  12.56780466  1.50000000
C   1272.32000000  15.02731681  1.50000000
C   1272.32000000  17.48682895  1.50000000
C   1272.32000000  19.94634110  1.50000000
C   1272.32000000  22.40585325  1.50000000
C   1272.32000000  24.86536539  1.50000000
C   1273.74000000  2.72975607  1.50000000
C   1273.74000000  5.18926822  1.50000000
C   1273.74000000  7.64878037  1.50000000
C   1273.74000000  10.10829251  1.50000000
C   1273.74000000  12.56780466  1.50000000
C   1273.74000000  15.02731681  1.50000000
C   1273.74000000  17.48682895  1.50000000
C   1273.74000000  19.94634110  1.50000000
C   1273.74000000  22.40585325  1.50000000
C   1273.74000000  24.86536539  1.50000000
C   1274.45000000  1.50000000  1.50000000
C   1274.45000000  3.95951215  1.50000000
C   1274.45000000  6.41902429  1.50000000
C   1274.45000000  8.87853644  1.50000000
C   1274.45000000  11.33804859  1.50000000
C   1274.45000000  13.79756073  1.50000000
C   1274.45000000  16.25707288  1.50000000
C   1274.45000000  18.71658503  1.50000000
C   1274.45000000  21.17609717  1.50000000
C   1274.45000000  23.63560932  1.50000000
C   1274.45000000  26.09512147  1.50000000
C   1275.87000000  1.50000000  1.50000000
C   1275.87000000  3.95951215  1.50000000
C   1275.87000000  6.41902429  1.50000000
C   1275.87000000  8.87853644  1.50000000
C   1275.87000000  11.33804859  1.50000000
C   1275.87000000  13.79756073  1.50000000
C   1275.87000000  16.25707288  1.50000000
C   1275.87000000  18.71658503  1.50000000
C   1275.87000000  21.17609717  1.50000000
C   1275.87000000  23.63560932  1.50000000
C   1275.87000000  26.09512147  1.50000000
C   1276.58000000  2.72975607  1.50000000
C   1276.58000000  5.18926822  1.50000000
C   1276.58000000  7.64878037  1.50000000
C   1276.58000000  10.10829251  1.50000000
C   1276.58000000  12.56780466  1.50000000
C   1276.58000000  15.02731681  1.50000000
C   1276.58000000  17.48682895  1.50000000
C   1276.58000000  19.94634110  1.50000000
C   1276.58000000  22.40585325  1.50000000
C   1276.58000000  24.86536539  1.50000000
C   1278.00000000  2.72975607  1.50000000
C   1278.00000000  5.18926822  1.50000000
C   1278.00000000  7.64878037  1.50000000
C   1278.00000000  10.10829251  1.50000000
C   1278.00000000  12.56780466  1.50000000
C   1278.00000000  15.02731681  1.50000000
C   1278.00000000  17.48682895  1.50000000
C   1278.00000000  19.94634110  1.50000000
C   1278.00000000  22.40585325  1.50000000
C   1278.00000000  24.86536539  1.50000000
C   1278.71000000  1.50000000  1.50000000
C   1278.71000000  3.95951215  1.50000000
C   1278.71000000  6.41902429  1.50000000
C   1278.71000000  8.87853644  1.50000000
C   1278.71000000  11.33804859  1.50000000
C   1278.71000000  13.79756073  1.50000000
C   1278.71000000  16.25707288  1.50000000
C   1278.71000000  18.71658503  1.50000000
C   1278.71000000  21.17609717  1.50000000
C   1278.71000000  23.63560932  1.50000000
C   1278.71000000  26.09512147  1.50000000
C   1280.13000000  1.50000000  1.50000000
C   1280.13000000  3.95951215  1.50000000
C   1280.13000000  6.41902429  1.50000000
C   1280.13000000  8.87853644  1.50000000
C   1280.13000000  11.33804859  1.50000000
C   1280.13000000  13.79756073  1.50000000
C   1280.13000000  16.25707288  1.50000000
C   1280.13000000  18.71658503  1.50000000
C   1280.13000000  21.17609717  1.50000000
C   1280.13000000  23.63560932  1.50000000
C   1280.13000000  26.09512147  1.50000000
C   1280.84000000  2.72975607  1.50000000
C   1280.84000000  5.18926822  1.50000000
C   1280.84000000  7.64878037  1.50000000
C   1280.84000000  10.10829251  1.50000000
C   1280.84000000  12.56780466  1.50000000
C   1280.84000000  15.02731681  1.50000000
C   1280.84000000  17.48682895  1.50000000
C   1280.84000000  19.94634110  1.50000000
C   1280.84000000  22.40585325  1.50000000
C   1280.84000000  24.86536539  1.50000000
C   1282.26000000  2.72975607  1.50000000
C   1282.26000000  5.18926822  1.50000000
C   1282.26000000  7.64878037  1.50000000
C   1282.26000000  10.10829251  1.50000000
C   1282.26000000  12.56780466  1.50000000
C   1282.26000000  15.02731681  1.50000000
C   1282.26000000  17.48682895  1.50000000
C   1282.26000000  19.94634110  1.50000000
C   1282.26000000  22.40585325  1.50000000
C   1282.26000000  24.86536539  1.50000000
C   1282.97000000  1.50000000  1.50000000
C   1282.97000000  3.95951215  1.50000000
C   1282.97000000  6.41902429  1.50000000
C   1282.97000000  8.87853644  1.50000000
C   1282.97000000  11.33804859  1.50000000
C   1282.97000000  13.79756073  1.50000000
C   1282.97000000  16.25707288  1.50000000
C   1282.97000000  18.71658503  1.50000000
C   1282.97000000  21.17609717  1.50000000
C   1282.97000000  23.63560932  1.50000000
C   1282.97000000  26.09512147  1.50000000
C   1284.39000000  1.50000000  1.50000000
C   1284.39000000  3.95951215  1.50000000
C   1284.39000000  6.41902429  1.50000000
C   1284.39000000  8.87853644  1.50000000
C   1284.39000000  11.33804859  1.50000000
C   1284.39000000  13.79756073  1.50000000
C   1284.39000000  16.25707288  1.50000000
C   1284.39000000  18.71658503  1.50000000
C   1284.39000000  21.17609717  1.50000000
C   1284.39000000  23.63560932  1.50000000
C   1284.39000000  26.09512147  1.50000000
C   1285.10000000  2.72975607  1.50000000
C   1285.10000000  5.18926822  1.50000000
C   1285.10000000  7.64878037  1.50000000
C   1285.10000000  10.10829251  1.50000000
C   1285.10000000  12.56780466  1.50000000
C   1285.10000000  15.02731681  1.50000000
C   1285.10000000  17.48682895  1.50000000
C   1285.10000000  19.94634110  1.50000000
C   1285.10000000  22.40585325  1.50000000
C   1285.10000000  24.86536539  1.50000000
C   1286.52000000  2.72975607  1.50000000
C   1286.52000000  5.18926822  1.50000000
C   1286.52000000  7.64878037  1.50000000
C   1286.52000000  10.10829251  1.50000000
C   1286.52000000  12.56780466  1.50000000
C   1286.52000000  15.02731681  1.50000000
C   1286.52000000  17.48682895  1.50000000
C   1286.52000000  19.94634110  1.50000000
C   1286.52000000  22.40585325  1.50000000
C   1286.52000000  24.86536539  1.50000000
C   1287.23000000  1.50000000  1.50000000
C   1287.23000000  3.95951215  1.50000000
C   1287.23000000  6.41902429  1.50000000
C   1287.23000000  8.87853644  1.50000000
C   1287.23000000  11.33804859  1.50000000
C   1287.23000000  13.79756073  1.50000000
C   1287.23000000  16.25707288  1.50000000
C   1287.23000000  18.71658503  1.50000000
C   1287.23000000  21.17609717  1.50000000
C   1287.23000000  23.63560932  1.50000000
C   1287.23000000  26.09512147  1.50000000
C   1288.65000000  1.50000000  1.50000000
C   1288.65000000  3.95951215  1.50000000
C   1288.65000000  6.41902429  1.50000000
C   1288.65000000  8.87853644  1.50000000
C   1288.65000000  11.33804859  1.50000000
C   1288.65000000  13.79756073  1.50000000
C   1288.65000000  16.25707288  1.50000000
C   1288.65000000  18.71658503  1.50000000
C   1288.65000000  21.17609717  1.50000000
C   1288.65000000  23.63560932  1.50000000
C   1288.65000000  26.09512147  1.50000000
C   1289.36000000  2.72975607  1.50000000
C   1289.36000000  5.18926822  1.50000000
C   1289.36000000  7.64878037  1.50000000
C   1289.36000000  10.10829251  1.50000000
C   1289.36000000  12.56780466  1.50000000
C   1289.36000000  15.02731681  1.50000000
C   1289.36000000  17.48682895  1.50000000
C   1289.36000000  19.94634110  1.50000000
C   1289.36000000  22.40585325  1.50000000
C   1289.36000000  24.86536539  1.50000000
C   1290.78000000  2.72975607  1.50000000
C   1290.78000000  5.18926822  1.50000000
C   1290.78000000  7.64878037  1.50000000
C   1290.78000000  10.10829251  1.50000000
C   1290.78000000  12.56780466  1.50000000
C   1290.78000000  15.02731681  1.50000000
C   1290.78000000  17.48682895  1.50000000
C   1290.78000000  19.94634110  1.50000000
C   1290.78000000  22.40585325  1.50000000
C   1290.78000000  24.86536539  1.50000000
C   1291.49000000  1.50000000  1.50000000
C   1291.49000000  3.95951215  1.50000000
C   1291.49000000  6.41902429  1.50000000
C   1291.49000000  8.87853644  1.50000000
C   1291.49000000  11.33804859  1.50000000
C   1291.49000000  13.79756073  1.50000000
C   1291.49000000  16.25707288  1.50000000
C   1291.49000000  18.71658503  1.50000000
C   1291.49000000  21.17609717  1.50000000
C   1291.49000000  23.63560932  1.50000000
C   1291.49000000  26.09512147  1.50000000
C   1292.91000000  1.50000000  1.50000000
C   1292.91000000  3.95951215  1.50000000
C   1292.91000000  6.41902429  1.50000000
C   1292.91000000  8.87853644  1.50000000
C   1292.91000000  11.33804859  1.50000000
C   1292.91000000  13.79756073  1.50000000
C   1292.91000000  16.25707288  1.50000000
C   1292.91000000  18.71658503  1.50000000
C   1292.91000000  21.17609717  1.50000000
C   1292.91000000  23.63560932  1.50000000
C   1292.91000000  26.09512147  1.50000000
C   1293.62000000  2.72975607  1.50000000
C   1293.62000000  5.18926822  1.50000000
C   1293.62000000  7.64878037  1.50000000
C   1293.62000000  10.10829251  1.50000000
C   1293.62000000  12.56780466  1.50000000
C   1293.62000000  15.02731681  1.50000000
C   1293.62000000  17.48682895  1.50000000
C   1293.62000000  19.94634110  1.50000000
C   1293.62000000  22.40585325  1.50000000
C   1293.62000000  24.86536539  1.50000000
C   1295.04000000  2.72975607  1.50000000
C   1295.04000000  5.18926822  1.50000000
C   1295.04000000  7.64878037  1.50000000
C   1295.04000000  10.10829251  1.50000000
C   1295.04000000  12.56780466  1.50000000
C   1295.04000000  15.02731681  1.50000000
C   1295.04000000  17.48682895  1.50000000
C   1295.04000000  19.94634110  1.50000000
C   1295.04000000  22.40585325  1.50000000
C   1295.04000000  24.86536539  1.50000000
C   1295.75000000  1.50000000  1.50000000
C   1295.75000000  3.95951215  1.50000000
C   1295.75000000  6.41902429  1.50000000
C   1295.75000000  8.87853644  1.50000000
C   1295.75000000  11.33804859  1.50000000
C   1295.75000000  13.79756073  1.50000000
C   1295.75000000  16.25707288  1.50000000
C   1295.75000000  18.71658503  1.50000000
C   1295.75000000  21.17609717  1.50000000
C   1295.75000000  23.63560932  1.50000000
C   1295.75000000  26.09512147  1.50000000
C   1297.17000000  1.50000000  1.50000000
C   1297.17000000  3.95951215  1.50000000
C   1297.17000000  6.41902429  1.50000000
C   1297.17000000  8.87853644  1.50000000
C   1297.17000000  11.33804859  1.50000000
C   1297.17000000  13.79756073  1.50000000
C   1297.17000000  16.25707288  1.50000000
C   1297.17000000  18.71658503  1.50000000
C   1297.17000000  21.17609717  1.50000000
C   1297.17000000  23.63560932  1.50000000
C   1297.17000000  26.09512147  1.50000000
C   1297.88000000  2.72975607  1.50000000
C   1297.88000000  5.18926822  1.50000000
C   1297.88000000  7.64878037  1.50000000
C   1297.88000000  10.10829251  1.50000000
C   1297.88000000  12.56780466  1.50000000
C   1297.88000000  15.02731681  1.50000000
C   1297.88000000  17.48682895  1.50000000
C   1297.88000000  19.94634110  1.50000000
C   1297.88000000  22.40585325  1.50000000
C   1297.88000000  24.86536539  1.50000000
C   1299.30000000  2.72975607  1.50000000
C   1299.30000000  5.18926822  1.50000000
C   1299.30000000  7.64878037  1.50000000
C   1299.30000000  10.10829251  1.50000000
C   1299.30000000  12.56780466  1.50000000
C   1299.30000000  15.02731681  1.50000000
C   1299.30000000  17.48682895  1.50000000
C   1299.30000000  19.94634110  1.50000000
C   1299.30000000  22.40585325  1.50000000
C   1299.30000000  24.86536539  1.50000000
C   1300.01000000  1.50000000  1.50000000
C   1300.01000000  3.95951215  1.50000000
C   1300.01000000  6.41902429  1.50000000
C   1300.01000000  8.87853644  1.50000000
C   1300.01000000  11.33804859  1.50000000
C   1300.01000000  13.79756073  1.50000000
C   1300.01000000  16.25707288  1.50000000
C   1300.01000000  18.71658503  1.50000000
C   1300.01000000  21.17609717  1.50000000
C   1300.01000000  23.63560932  1.50000000
C   1300.01000000  26.09512147  1.50000000
C   1301.43000000  1.50000000  1.50000000
C   1301.43000000  3.95951215  1.50000000
C   1301.43000000  6.41902429  1.50000000
C   1301.43000000  8.87853644  1.50000000
C   1301.43000000  11.33804859  1.50000000
C   1301.43000000  13.79756073  1.50000000
C   1301.43000000  16.25707288  1.50000000
C   1301.43000000  18.71658503  1.50000000
C   1301.43000000  21.17609717  1.50000000
C   1301.43000000  23.63560932  1.50000000
C   1301.43000000  26.09512147  1.50000000
C   1302.14000000  2.72975607  1.50000000
C   1302.14000000  5.18926822  1.50000000
C   1302.14000000  7.64878037  1.50000000
C   1302.14000000  10.10829251  1.50000000
C   1302.14000000  12.56780466  1.50000000
C   1302.14000000  15.02731681  1.50000000
C   1302.14000000  17.48682895  1.50000000
C   1302.14000000  19.94634110  1.50000000
C   1302.14000000  22.40585325  1.50000000
C   1302.14000000  24.86536539  1.50000000
C   1303.56000000  2.72975607  1.50000000
C   1303.56000000  5.18926822  1.50000000
C   1303.56000000  7.64878037  1.50000000
C   1303.56000000  10.10829251  1.50000000
C   1303.56000000  12.56780466  1.50000000
C   1303.56000000  15.02731681  1.50000000
C   1303.56000000  17.48682895  1.50000000
C   1303.56000000  19.94634110  1.50000000
C   1303.56000000  22.40585325  1.50000000
C   1303.56000000  24.86536539  1.50000000
C   1304.27000000  1.50000000  1.50000000
C   1304.27000000  3.95951215  1.50000000
C   1304.27000000  6.41902429  1.50000000
C   1304.27000000  8.87853644  1.50000000
C   1304.27000000  11.33804859  1.50000000
C   1304.27000000  13.79756073  1.50000000
C   1304.27000000  16.25707288  1.50000000
C   1304.27000000  18.71658503  1.50000000
C   1304.27000000  21.17609717  1.50000000
C   1304.27000000  23.63560932  1.50000000
C   1304.27000000  26.09512147  1.50000000
C   1305.69000000  1.50000000  1.50000000
C   1305.69000000  3.95951215  1.50000000
C   1305.69000000  6.41902429  1.50000000
C   1305.69000000  8.87853644  1.50000000
C   1305.69000000  11.33804859  1.50000000
C   1305.69000000  13.79756073  1.50000000
C   1305.69000000  16.25707288  1.50000000
C   1305.69000000  18.71658503  1.50000000
C   1305.69000000  21.17609717  1.50000000
C   1305.69000000  23.63560932  1.50000000
C   1305.69000000  26.09512147  1.50000000
C   1306.40000000  2.72975607  1.50000000
C   1306.40000000  5.18926822  1.50000000
C   1306.40000000  7.64878037  1.50000000
C   1306.40000000  10.10829251  1.50000000
C   1306.40000000  12.56780466  1.50000000
C   1306.40000000  15.02731681  1.50000000
C   1306.40000000  17.48682895  1.50000000
C   1306.40000000  19.94634110  1.50000000
C   1306.40000000  22.40585325  1.50000000
C   1306.40000000  24.86536539  1.50000000
C   1307.82000000  2.72975607  1.50000000
C   1307.82000000  5.18926822  1.50000000
C   1307.82000000  7.64878037  1.50000000
C   1307.82000000  10.10829251  1.50000000
C   1307.82000000  12.56780466  1.50000000
C   1307.82000000  15.02731681  1.50000000
C   1307.82000000  17.48682895  1.50000000
C   1307.82000000  19.94634110  1.50000000
C   1307.82000000  22.40585325  1.50000000
C   1307.82000000  24.86536539  1.50000000
C   1308.53000000  1.50000000  1.50000000
C   1308.53000000  3.95951215  1.50000000
C   1308.53000000  6.41902429  1.50000000
C   1308.53000000  8.87853644  1.50000000
C   1308.53000000  11.33804859  1.50000000
C   1308.53000000  13.79756073  1.50000000
C   1308.53000000  16.25707288  1.50000000
C   1308.53000000  18.71658503  1.50000000
C   1308.53000000  21.17609717  1.50000000
C   1308.53000000  23.63560932  1.50000000
C   1308.53000000  26.09512147  1.50000000
C   1309.95000000  1.50000000  1.50000000
C   1309.95000000  3.95951215  1.50000000
C   1309.95000000  6.41902429  1.50000000
C   1309.95000000  8.87853644  1.50000000
C   1309.95000000  11.33804859  1.50000000
C   1309.95000000  13.79756073  1.50000000
C   1309.95000000  16.25707288  1.50000000
C   1309.95000000  18.71658503  1.50000000
C   1309.95000000  21.17609717  1.50000000
C   1309.95000000  23.63560932  1.50000000
C   1309.95000000  26.09512147  1.50000000
C   1310.66000000  2.72975607  1.50000000
C   1310.66000000  5.18926822  1.50000000
C   1310.66000000  7.64878037  1.50000000
C   1310.66000000  10.10829251  1.50000000
C   1310.66000000  12.56780466  1.50000000
C   1310.66000000  15.02731681  1.50000000
C   1310.66000000  17.48682895  1.50000000
C   1310.66000000  19.94634110  1.50000000
C   1310.66000000  22.40585325  1.50000000
C   1310.66000000  24.86536539  1.50000000
C   1312.08000000  2.72975607  1.50000000
C   1312.08000000  5.18926822  1.50000000
C   1312.08000000  7.64878037  1.50000000
C   1312.08000000  10.10829251  1.50000000
C   1312.08000000  12.56780466  1.50000000
C   1312.08000000  15.02731681  1.50000000
C   1312.08000000  17.48682895  1.50000000
C   1312.08000000  19.94634110  1.50000000
C   1312.08000000  22.40585325  1.50000000
C   1312.08000000  24.86536539  1.50000000
C   1312.79000000  1.50000000  1.50000000
C   1312.79000000  3.95951215  1.50000000
C   1312.79000000  6.41902429  1.50000000
C   1312.79000000  8.87853644  1.50000000
C   1312.79000000  11.33804859  1.50000000
C   1312.79000000  13.79756073  1.50000000
C   1312.79000000  16.25707288  1.50000000
C   1312.79000000  18.71658503  1.50000000
C   1312.79000000  21.17609717  1.50000000
C   1312.79000000  23.63560932  1.50000000
C   1312.79000000  26.09512147  1.50000000
C   1314.21000000  1.50000000  1.50000000
C   1314.21000000  3.95951215  1.50000000
C   1314.21000000  6.41902429  1.50000000
C   1314.21000000  8.87853644  1.50000000
C   1314.21000000  11.33804859  1.50000000
C   1314.21000000  13.79756073  1.50000000
C   1314.21000000  16.25707288  1.50000000
C   1314.21000000  18.71658503  1.50000000
C   1314.21000000  21.17609717  1.50000000
C   1314.21000000  23.63560932  1.50000000
C   1314.21000000  26.09512147  1.50000000
C   1314.92000000  2.72975607  1.50000000
C   1314.92000000  5.18926822  1.50000000
C   1314.92000000  7.64878037  1.50000000
C   1314.92000000  10.10829251  1.50000000
C   1314.92000000  12.56780466  1.50000000
C   1314.92000000  15.02731681  1.50000000
C   1314.92000000  17.48682895  1.50000000
C   1314.92000000  19.94634110  1.50000000
C   1314.92000000  22.40585325  1.50000000
C   1314.92000000  24.86536539  1.50000000
C   1316.34000000  2.72975607  1.50000000
C   1316.34000000  5.18926822  1.50000000
C   1316.34000000  7.64878037  1.50000000
C   1316.34000000  10.10829251  1.50000000
C   1316.34000000  12.56780466  1.50000000
C   1316.34000000  15.02731681  1.50000000
C   1316.34000000  17.48682895  1.50000000
C   1316.34000000  19.94634110  1.50000000
C   1316.34000000  22.40585325  1.50000000
C   1316.34000000  24.86536539  1.50000000
C   1317.05000000  1.50000000  1.50000000
C   1317.05000000  3.95951215  1.50000000
C   1317.05000000  6.41902429  1.50000000
C   1317.05000000  8.87853644  1.50000000
C   1317.05000000  11.33804859  1.50000000
C   1317.05000000  13.79756073  1.50000000
C   1317.05000000  16.25707288  1.50000000
C   1317.05000000  18.71658503  1.50000000
C   1317.05000000  21.17609717  1.50000000
C   1317.05000000  23.63560932  1.50000000
C   1317.05000000  26.09512147  1.50000000
C   1318.47000000  1.50000000  1.50000000
C   1318.47000000  3.95951215  1.50000000
C   1318.47000000  6.41902429  1.50000000
C   1318.47000000  8.87853644  1.50000000
C   1318.47000000  11.33804859  1.50000000
C   1318.47000000  13.79756073  1.50000000
C   1318.47000000  16.25707288  1.50000000
C   1318.47000000  18.71658503  1.50000000
C   1318.47000000  21.17609717  1.50000000
C   1318.47000000  23.63560932  1.50000000
C   1318.47000000  26.09512147  1.50000000
C   1319.18000000  2.72975607  1.50000000
C   1319.18000000  5.18926822  1.50000000
C   1319.18000000  7.64878037  1.50000000
C   1319.18000000  10.10829251  1.50000000
C   1319.18000000  12.56780466  1.50000000
C   1319.18000000  15.02731681  1.50000000
C   1319.18000000  17.48682895  1.50000000
C   1319.18000000  19.94634110  1.50000000
C   1319.18000000  22.40585325  1.50000000
C   1319.18000000  24.86536539  1.50000000
C   1320.60000000  2.72975607  1.50000000
C   1320.60000000  5.18926822  1.50000000
C   1320.60000000  7.64878037  1.50000000
C   1320.60000000  10.10829251  1.50000000
C   1320.60000000  12.56780466  1.50000000
C   1320.60000000  15.02731681  1.50000000
C   1320.60000000  17.48682895  1.50000000
C   1320.60000000  19.94634110  1.50000000
C   1320.60000000  22.40585325  1.50000000
C   1320.60000000  24.86536539  1.50000000
C   1321.31000000  1.50000000  1.50000000
C   1321.31000000  3.95951215  1.50000000
C   1321.31000000  6.41902429  1.50000000
C   1321.31000000  8.87853644  1.50000000
C   1321.31000000  11.33804859  1.50000000
C   1321.31000000  13.79756073  1.50000000
C   1321.31000000  16.25707288  1.50000000
C   1321.31000000  18.71658503  1.50000000
C   1321.31000000  21.17609717  1.50000000
C   1321.31000000  23.63560932  1.50000000
C   1321.31000000  26.09512147  1.50000000
C   1322.73000000  1.50000000  1.50000000
C   1322.73000000  3.95951215  1.50000000
C   1322.73000000  6.41902429  1.50000000
C   1322.73000000  8.87853644  1.50000000
C   1322.73000000  11.33804859  1.50000000
C   1322.73000000  13.79756073  1.50000000
C   1322.73000000  16.25707288  1.50000000
C   1322.73000000  18.71658503  1.50000000
C   1322.73000000  21.17609717  1.50000000
C   1322.73000000  23.63560932  1.50000000
C   1322.73000000  26.09512147  1.50000000
C   1323.44000000  2.72975607  1.50000000
C   1323.44000000  5.18926822  1.50000000
C   1323.44000000  7.64878037  1.50000000
C   1323.44000000  10.10829251  1.50000000
C   1323.44000000  12.56780466  1.50000000
C   1323.44000000  15.02731681  1.50000000
C   1323.44000000  17.48682895  1.50000000
C   1323.44000000  19.94634110  1.50000000
C   1323.44000000  22.40585325  1.50000000
C   1323.44000000  24.86536539  1.50000000
C   1324.86000000  2.72975607  1.50000000
C   1324.86000000  5.18926822  1.50000000
C   1324.86000000  7.64878037  1.50000000
C   1324.86000000  10.10829251  1.50000000
C   1324.86000000  12.56780466  1.50000000
C   1324.86000000  15.02731681  1.50000000
C   1324.86000000  17.48682895  1.50000000
C   1324.86000000  19.94634110  1.50000000
C   1324.86000000  22.40585325  1.50000000
C   1324.86000000  24.86536539  1.50000000
C   1325.57000000  1.50000000  1.50000000
C   1325.57000000  3.95951215  1.50000000
C   1325.57000000  6.41902429  1.50000000
C   1325.57000000  8.87853644  1.50000000
C   1325.57000000  11.33804859  1.50000000
C   1325.57000000  13.79756073  1.50000000
C   1325.57000000  16.25707288  1.50000000
C   1325.57000000  18.71658503  1.50000000
C   1325.57000000  21.17609717  1.50000000
C   1325.57000000  23.63560932  1.50000000
C   1325.57000000  26.09512147  1.50000000
C   1326.99000000  1.50000000  1.50000000
C   1326.99000000  3.95951215  1.50000000
C   1326.99000000  6.41902429  1.50000000
C   1326.99000000  8.87853644  1.50000000
C   1326.99000000  11.33804859  1.50000000
C   1326.99000000  13.79756073  1.50000000
C   1326.99000000  16.25707288  1.50000000
C   1326.99000000  18.71658503  1.50000000
C   1326.99000000  21.17609717  1.50000000
C   1326.99000000  23.63560932  1.50000000
C   1326.99000000  26.09512147  1.50000000
C   1327.70000000  2.72975607  1.50000000
C   1327.70000000  5.18926822  1.50000000
C   1327.70000000  7.64878037  1.50000000
C   1327.70000000  10.10829251  1.50000000
C   1327.70000000  12.56780466  1.50000000
C   1327.70000000  15.02731681  1.50000000
C   1327.70000000  17.48682895  1.50000000
C   1327.70000000  19.94634110  1.50000000
C   1327.70000000  22.40585325  1.50000000
C   1327.70000000  24.86536539  1.50000000
C   1329.12000000  2.72975607  1.50000000
C   1329.12000000  5.18926822  1.50000000
C   1329.12000000  7.64878037  1.50000000
C   1329.12000000  10.10829251  1.50000000
C   1329.12000000  12.56780466  1.50000000
C   1329.12000000  15.02731681  1.50000000
C   1329.12000000  17.48682895  1.50000000
C   1329.12000000  19.94634110  1.50000000
C   1329.12000000  22.40585325  1.50000000
C   1329.12000000  24.86536539  1.50000000
C   1329.83000000  1.50000000  1.50000000
C   1329.83000000  3.95951215  1.50000000
C   1329.83000000  6.41902429  1.50000000
C   1329.83000000  8.87853644  1.50000000
C   1329.83000000  11.33804859  1.50000000
C   1329.83000000  13.79756073  1.50000000
C   1329.83000000  16.25707288  1.50000000
C   1329.83000000  18.71658503  1.50000000
C   1329.83000000  21.17609717  1.50000000
C   1329.83000000  23.63560932  1.50000000
C   1329.83000000  26.09512147  1.50000000
C   1331.25000000  1.50000000  1.50000000
C   1331.25000000  3.95951215  1.50000000
C   1331.25000000  6.41902429  1.50000000
C   1331.25000000  8.87853644  1.50000000
C   1331.25000000  11.33804859  1.50000000
C   1331.25000000  13.79756073  1.50000000
C   1331.25000000  16.25707288  1.50000000
C   1331.25000000  18.71658503  1.50000000
C   1331.25000000  21.17609717  1.50000000
C   1331.25000000  23.63560932  1.50000000
C   1331.25000000  26.09512147  1.50000000
C   1331.96000000  2.72975607  1.50000000
C   1331.96000000  5.18926822  1.50000000
C   1331.96000000  7.64878037  1.50000000
C   1331.96000000  10.10829251  1.50000000
C   1331.96000000  12.56780466  1.50000000
C   1331.96000000  15.02731681  1.50000000
C   1331.96000000  17.48682895  1.50000000
C   1331.96000000  19.94634110  1.50000000
C   1331.96000000  22.40585325  1.50000000
C   1331.96000000  24.86536539  1.50000000
C   1333.38000000  2.72975607  1.50000000
C   1333.38000000  5.18926822  1.50000000
C   1333.38000000  7.64878037  1.50000000
C   1333.38000000  10.10829251  1.50000000
C   1333.38000000  12.56780466  1.50000000
C   1333.38000000  15.02731681  1.50000000
C   1333.38000000  17.48682895  1.50000000
C   1333.38000000  19.94634110  1.50000000
C   1333.38000000  22.40585325  1.50000000
C   1333.38000000  24.86536539  1.50000000
C   1334.09000000  1.50000000  1.50000000
C   1334.09000000  3.95951215  1.50000000
C   1334.09000000  6.41902429  1.50000000
C   1334.09000000  8.87853644  1.50000000
C   1334.09000000  11.33804859  1.50000000
C   1334.09000000  13.79756073  1.50000000
C   1334.09000000  16.25707288  1.50000000
C   1334.09000000  18.71658503  1.50000000
C   1334.09000000  21.17609717  1.50000000
C   1334.09000000  23.63560932  1.50000000
C   1334.09000000  26.09512147  1.50000000
C   1335.51000000  1.50000000  1.50000000
C   1335.51000000  3.95951215  1.50000000
C   1335.51000000  6.41902429  1.50000000
C   1335.51000000  8.87853644  1.50000000
C   1335.51000000  11.33804859  1.50000000
C   1335.51000000  13.79756073  1.50000000
C   1335.51000000  16.25707288  1.50000000
C   1335.51000000  18.71658503  1.50000000
C   1335.51000000  21.17609717  1.50000000
C   1335.51000000  23.63560932  1.50000000
C   1335.51000000  26.09512147  1.50000000
C   1336.22000000  2.72975607  1.50000000
C   1336.22000000  5.18926822  1.50000000
C   1336.22000000  7.64878037  1.50000000
C   1336.22000000  10.10829251  1.50000000
C   1336.22000000  12.56780466  1.50000000
C   1336.22000000  15.02731681  1.50000000
C   1336.22000000  17.48682895  1.50000000
C   1336.22000000  19.94634110  1.50000000
C   1336.22000000  22.40585325  1.50000000
C   1336.22000000  24.86536539  1.50000000
C   1337.64000000  2.72975607  1.50000000
C   1337.64000000  5.18926822  1.50000000
C   1337.64000000  7.64878037  1.50000000
C   1337.64000000  10.10829251  1.50000000
C   1337.64000000  12.56780466  1.50000000
C   1337.64000000  15.02731681  1.50000000
C   1337.64000000  17.48682895  1.50000000
C   1337.64000000  19.94634110  1.50000000
C   1337.64000000  22.40585325  1.50000000
C   1337.64000000  24.86536539  1.50000000
C   1338.35000000  1.50000000  1.50000000
C   1338.35000000  3.95951215  1.50000000
C   1338.35000000  6.41902429  1.50000000
C   1338.35000000  8.87853644  1.50000000
C   1338.35000000  11.33804859  1.50000000
C   1338.35000000  13.79756073  1.50000000
C   1338.35000000  16.25707288  1.50000000
C   1338.35000000  18.71658503  1.50000000
C   1338.35000000  21.17609717  1.50000000
C   1338.35000000  23.63560932  1.50000000
C   1338.35000000  26.09512147  1.50000000
C   1339.77000000  1.50000000  1.50000000
C   1339.77000000  3.95951215  1.50000000
C   1339.77000000  6.41902429  1.50000000
C   1339.77000000  8.87853644  1.50000000
C   1339.77000000  11.33804859  1.50000000
C   1339.77000000  13.79756073  1.50000000
C   1339.77000000  16.25707288  1.50000000
C   1339.77000000  18.71658503  1.50000000
C   1339.77000000  21.17609717  1.50000000
C   1339.77000000  23.63560932  1.50000000
C   1339.77000000  26.09512147  1.50000000
C   1340.48000000  2.72975607  1.50000000
C   1340.48000000  5.18926822  1.50000000
C   1340.48000000  7.64878037  1.50000000
C   1340.48000000  10.10829251  1.50000000
C   1340.48000000  12.56780466  1.50000000
C   1340.48000000  15.02731681  1.50000000
C   1340.48000000  17.48682895  1.50000000
C   1340.48000000  19.94634110  1.50000000
C   1340.48000000  22.40585325  1.50000000
C   1340.48000000  24.86536539  1.50000000
C   1341.90000000  2.72975607  1.50000000
C   1341.90000000  5.18926822  1.50000000
C   1341.90000000  7.64878037  1.50000000
C   1341.90000000  10.10829251  1.50000000
C   1341.90000000  12.56780466  1.50000000
C   1341.90000000  15.02731681  1.50000000
C   1341.90000000  17.48682895  1.50000000
C   1341.90000000  19.94634110  1.50000000
C   1341.90000000  22.40585325  1.50000000
C   1341.90000000  24.86536539  1.50000000
C   1342.61000000  1.50000000  1.50000000
C   1342.61000000  3.95951215  1.50000000
C   1342.61000000  6.41902429  1.50000000
C   1342.61000000  8.87853644  1.50000000
C   1342.61000000  11.33804859  1.50000000
C   1342.61000000  13.79756073  1.50000000
C   1342.61000000  16.25707288  1.50000000
C   1342.61000000  18.71658503  1.50000000
C   1342.61000000  21.17609717  1.50000000
C   1342.61000000  23.63560932  1.50000000
C   1342.61000000  26.09512147  1.50000000
C   1344.03000000  1.50000000  1.50000000
C   1344.03000000  3.95951215  1.50000000
C   1344.03000000  6.41902429  1.50000000
C   1344.03000000  8.87853644  1.50000000
C   1344.03000000  11.33804859  1.50000000
C   1344.03000000  13.79756073  1.50000000
C   1344.03000000  16.25707288  1.50000000
C   1344.03000000  18.71658503  1.50000000
C   1344.03000000  21.17609717  1.50000000
C   1344.03000000  23.63560932  1.50000000
C   1344.03000000  26.09512147  1.50000000
C   1344.74000000  2.72975607  1.50000000
C   1344.74000000  5.18926822  1.50000000
C   1344.74000000  7.64878037  1.50000000
C   1344.74000000  10.10829251  1.50000000
C   1344.74000000  12.56780466  1.50000000
C   1344.74000000  15.02731681  1.50000000
C   1344.74000000  17.48682895  1.50000000
C   1344.74000000  19.94634110  1.50000000
C   1344.74000000  22.40585325  1.50000000
C   1344.74000000  24.86536539  1.50000000
C   1346.16000000  2.72975607  1.50000000
C   1346.16000000  5.18926822  1.50000000
C   1346.16000000  7.64878037  1.50000000
C   1346.16000000  10.10829251  1.50000000
C   1346.16000000  12.56780466  1.50000000
C   1346.16000000  15.02731681  1.50000000
C   1346.16000000  17.48682895  1.50000000
C   1346.16000000  19.94634110  1.50000000
C   1346.16000000  22.40585325  1.50000000
C   1346.16000000  24.86536539  1.50000000
C   1346.87000000  1.50000000  1.50000000
C   1346.87000000  3.95951215  1.50000000
C   1346.87000000  6.41902429  1.50000000
C   1346.87000000  8.87853644  1.50000000
C   1346.87000000  11.33804859  1.50000000
C   1346.87000000  13.79756073  1.50000000
C   1346.87000000  16.25707288  1.50000000
C   1346.87000000  18.71658503  1.50000000
C   1346.87000000  21.17609717  1.50000000
C   1346.87000000  23.63560932  1.50000000
C   1346.87000000  26.09512147  1.50000000
C   1348.29000000  1.50000000  1.50000000
C   1348.29000000  3.95951215  1.50000000
C   1348.29000000  6.41902429  1.50000000
C   1348.29000000  8.87853644  1.50000000
C   1348.29000000  11.33804859  1.50000000
C   1348.29000000  13.79756073  1.50000000
C   1348.29000000  16.25707288  1.50000000
C   1348.29000000  18.71658503  1.50000000
C   1348.29000000  21.17609717  1.50000000
C   1348.29000000  23.63560932  1.50000000
C   1348.29000000  26.09512147  1.50000000
C   1349.00000000  2.72975607  1.50000000
C   1349.00000000  5.18926822  1.50000000
C   1349.00000000  7.64878037  1.50000000
C   1349.00000000  10.10829251  1.50000000
C   1349.00000000  12.56780466  1.50000000
C   1349.00000000  15.02731681  1.50000000
C   1349.00000000  17.48682895  1.50000000
C   1349.00000000  19.94634110  1.50000000
C   1349.00000000  22.40585325  1.50000000
C   1349.00000000  24.86536539  1.50000000
C   1350.42000000  2.72975607  1.50000000
C   1350.42000000  5.18926822  1.50000000
C   1350.42000000  7.64878037  1.50000000
C   1350.42000000  10.10829251  1.50000000
C   1350.42000000  12.56780466  1.50000000
C   1350.42000000  15.02731681  1.50000000
C   1350.42000000  17.48682895  1.50000000
C   1350.42000000  19.94634110  1.50000000
C   1350.42000000  22.40585325  1.50000000
C   1350.42000000  24.86536539  1.50000000
C   1351.13000000  1.50000000  1.50000000
C   1351.13000000  3.95951215  1.50000000
C   1351.13000000  6.41902429  1.50000000
C   1351.13000000  8.87853644  1.50000000
C   1351.13000000  11.33804859  1.50000000
C   1351.13000000  13.79756073  1.50000000
C   1351.13000000  16.25707288  1.50000000
C   1351.13000000  18.71658503  1.50000000
C   1351.13000000  21.17609717  1.50000000
C   1351.13000000  23.63560932  1.50000000
C   1351.13000000  26.09512147  1.50000000
C   1352.55000000  1.50000000  1.50000000
C   1352.55000000  3.95951215  1.50000000
C   1352.55000000  6.41902429  1.50000000
C   1352.55000000  8.87853644  1.50000000
C   1352.55000000  11.33804859  1.50000000
C   1352.55000000  13.79756073  1.50000000
C   1352.55000000  16.25707288  1.50000000
C   1352.55000000  18.71658503  1.50000000
C   1352.55000000  21.17609717  1.50000000
C   1352.55000000  23.63560932  1.50000000
C   1352.55000000  26.09512147  1.50000000
C   1353.26000000  2.72975607  1.50000000
C   1353.26000000  5.18926822  1.50000000
C   1353.26000000  7.64878037  1.50000000
C   1353.26000000  10.10829251  1.50000000
C   1353.26000000  12.56780466  1.50000000
C   1353.26000000  15.02731681  1.50000000
C   1353.26000000  17.48682895  1.50000000
C   1353.26000000  19.94634110  1.50000000
C   1353.26000000  22.40585325  1.50000000
C   1353.26000000  24.86536539  1.50000000
C   1354.68000000  2.72975607  1.50000000
C   1354.68000000  5.18926822  1.50000000
C   1354.68000000  7.64878037  1.50000000
C   1354.68000000  10.10829251  1.50000000
C   1354.68000000  12.56780466  1.50000000
C   1354.68000000  15.02731681  1.50000000
C   1354.68000000  17.48682895  1.50000000
C   1354.68000000  19.94634110  1.50000000
C   1354.68000000  22.40585325  1.50000000
C   1354.68000000  24.86536539  1.50000000
C   1355.39000000  1.50000000  1.50000000
C   1355.39000000  3.95951215  1.50000000
C   1355.39000000  6.41902429  1.50000000
C   1355.39000000  8.87853644  1.50000000
C   1355.39000000  11.33804859  1.50000000
C   1355.39000000  13.79756073  1.50000000
C   1355.39000000  16.25707288  1.50000000
C   1355.39000000  18.71658503  1.50000000
C   1355.39000000  21.17609717  1.50000000
C   1355.39000000  23.63560932  1.50000000
C   1355.39000000  26.09512147  1.50000000
C   1356.81000000  1.50000000  1.50000000
C   1356.81000000  3.95951215  1.50000000
C   1356.81000000  6.41902429  1.50000000
C   1356.81000000  8.87853644  1.50000000
C   1356.81000000  11.33804859  1.50000000
C   1356.81000000  13.79756073  1.50000000
C   1356.81000000  16.25707288  1.50000000
C   1356.81000000  18.71658503  1.50000000
C   1356.81000000  21.17609717  1.50000000
C   1356.81000000  23.63560932  1.50000000
C   1356.81000000  26.09512147  1.50000000
C   1357.52000000  2.72975607  1.50000000
C   1357.52000000  5.18926822  1.50000000
C   1357.52000000  7.64878037  1.50000000
C   1357.52000000  10.10829251  1.50000000
C   1357.52000000  12.56780466  1.50000000
C   1357.52000000  15.02731681  1.50000000
C   1357.52000000  17.48682895  1.50000000
C   1357.52000000  19.94634110  1.50000000
C   1357.52000000  22.40585325  1.50000000
C   1357.52000000  24.86536539  1.50000000
C   1358.94000000  2.72975607  1.50000000
C   1358.94000000  5.18926822  1.50000000
C   1358.94000000  7.64878037  1.50000000
C   1358.94000000  10.10829251  1.50000000
C   1358.94000000  12.56780466  1.50000000
C   1358.94000000  15.02731681  1.50000000
C   1358.94000000  17.48682895  1.50000000
C   1358.94000000  19.94634110  1.50000000
C   1358.94000000  22.40585325  1.50000000
C   1358.94000000  24.86536539  1.50000000
C   1359.65000000  1.50000000  1.50000000
C   1359.65000000  3.95951215  1.50000000
C   1359.65000000  6.41902429  1.50000000
C   1359.65000000  8.87853644  1.50000000
C   1359.65000000  11.33804859  1.50000000
C   1359.65000000  13.79756073  1.50000000
C   1359.65000000  16.25707288  1.50000000
C   1359.65000000  18.71658503  1.50000000
C   1359.65000000  21.17609717  1.50000000
C   1359.65000000  23.63560932  1.50000000
C   1359.65000000  26.09512147  1.50000000
C   1361.07000000  1.50000000  1.50000000
C   1361.07000000  3.95951215  1.50000000
C   1361.07000000  6.41902429  1.50000000
C   1361.07000000  8.87853644  1.50000000
C   1361.07000000  11.33804859  1.50000000
C   1361.07000000  13.79756073  1.50000000
C   1361.07000000  16.25707288  1.50000000
C   1361.07000000  18.71658503  1.50000000
C   1361.07000000  21.17609717  1.50000000
C   1361.07000000  23.63560932  1.50000000
C   1361.07000000  26.09512147  1.50000000
C   1361.78000000  2.72975607  1.50000000
C   1361.78000000  5.18926822  1.50000000
C   1361.78000000  7.64878037  1.50000000
C   1361.78000000  10.10829251  1.50000000
C   1361.78000000  12.56780466  1.50000000
C   1361.78000000  15.02731681  1.50000000
C   1361.78000000  17.48682895  1.50000000
C   1361.78000000  19.94634110  1.50000000
C   1361.78000000  22.40585325  1.50000000
C   1361.78000000  24.86536539  1.50000000
C   1363.20000000  2.72975607  1.50000000
C   1363.20000000  5.18926822  1.50000000
C   1363.20000000  7.64878037  1.50000000
C   1363.20000000  10.10829251  1.50000000
C   1363.20000000  12.56780466  1.50000000
C   1363.20000000  15.02731681  1.50000000
C   1363.20000000  17.48682895  1.50000000
C   1363.20000000  19.94634110  1.50000000
C   1363.20000000  22.40585325  1.50000000
C   1363.20000000  24.86536539  1.50000000
C   1363.91000000  1.50000000  1.50000000
C   1363.91000000  3.95951215  1.50000000
C   1363.91000000  6.41902429  1.50000000
C   1363.91000000  8.87853644  1.50000000
C   1363.91000000  11.33804859  1.50000000
C   1363.91000000  13.79756073  1.50000000
C   1363.91000000  16.25707288  1.50000000
C   1363.91000000  18.71658503  1.50000000
C   1363.91000000  21.17609717  1.50000000
C   1363.91000000  23.63560932  1.50000000
C   1363.91000000  26.09512147  1.50000000
C   1365.33000000  1.50000000  1.50000000
C   1365.33000000  3.95951215  1.50000000
C   1365.33000000  6.41902429  1.50000000
C   1365.33000000  8.87853644  1.50000000
C   1365.33000000  11.33804859  1.50000000
C   1365.33000000  13.79756073  1.50000000
C   1365.33000000  16.25707288  1.50000000
C   1365.33000000  18.71658503  1.50000000
C   1365.33000000  21.17609717  1.50000000
C   1365.33000000  23.63560932  1.50000000
C   1365.33000000  26.09512147  1.50000000
C   1366.04000000  2.72975607  1.50000000
C   1366.04000000  5.18926822  1.50000000
C   1366.04000000  7.64878037  1.50000000
C   1366.04000000  10.10829251  1.50000000
C   1366.04000000  12.56780466  1.50000000
C   1366.04000000  15.02731681  1.50000000
C   1366.04000000  17.48682895  1.50000000
C   1366.04000000  19.94634110  1.50000000
C   1366.04000000  22.40585325  1.50000000
C   1366.04000000  24.86536539  1.50000000
C   1367.46000000  2.72975607  1.50000000
C   1367.46000000  5.18926822  1.50000000
C   1367.46000000  7.64878037  1.50000000
C   1367.46000000  10.10829251  1.50000000
C   1367.46000000  12.56780466  1.50000000
C   1367.46000000  15.02731681  1.50000000
C   1367.46000000  17.48682895  1.50000000
C   1367.46000000  19.94634110  1.50000000
C   1367.46000000  22.40585325  1.50000000
C   1367.46000000  24.86536539  1.50000000
C   1368.17000000  1.50000000  1.50000000
C   1368.17000000  3.95951215  1.50000000
C   1368.17000000  6.41902429  1.50000000
C   1368.17000000  8.87853644  1.50000000
C   1368.17000000  11.33804859  1.50000000
C   1368.17000000  13.79756073  1.50000000
C   1368.17000000  16.25707288  1.50000000
C   1368.17000000  18.71658503  1.50000000
C   1368.17000000  21.17609717  1.50000000
C   1368.17000000  23.63560932  1.50000000
C   1368.17000000  26.09512147  1.50000000
C   1369.59000000  1.50000000  1.50000000
C   1369.59000000  3.95951215  1.50000000
C   1369.59000000  6.41902429  1.50000000
C   1369.59000000  8.87853644  1.50000000
C   1369.59000000  11.33804859  1.50000000
C   1369.59000000  13.79756073  1.50000000
C   1369.59000000  16.25707288  1.50000000
C   1369.59000000  18.71658503  1.50000000
C   1369.59000000  21.17609717  1.50000000
C   1369.59000000  23.63560932  1.50000000
C   1369.59000000  26.09512147  1.50000000
C   1370.30000000  2.72975607  1.50000000
C   1370.30000000  5.18926822  1.50000000
C   1370.30000000  7.64878037  1.50000000
C   1370.30000000  10.10829251  1.50000000
C   1370.30000000  12.56780466  1.50000000
C   1370.30000000  15.02731681  1.50000000
C   1370.30000000  17.48682895  1.50000000
C   1370.30000000  19.94634110  1.50000000
C   1370.30000000  22.40585325  1.50000000
C   1370.30000000  24.86536539  1.50000000
C   1371.72000000  2.72975607  1.50000000
C   1371.72000000  5.18926822  1.50000000
C   1371.72000000  7.64878037  1.50000000
C   1371.72000000  10.10829251  1.50000000
C   1371.72000000  12.56780466  1.50000000
C   1371.72000000  15.02731681  1.50000000
C   1371.72000000  17.48682895  1.50000000
C   1371.72000000  19.94634110  1.50000000
C   1371.72000000  22.40585325  1.50000000
C   1371.72000000  24.86536539  1.50000000
C   1372.43000000  1.50000000  1.50000000
C   1372.43000000  3.95951215  1.50000000
C   1372.43000000  6.41902429  1.50000000
C   1372.43000000  8.87853644  1.50000000
C   1372.43000000  11.33804859  1.50000000
C   1372.43000000  13.79756073  1.50000000
C   1372.43000000  16.25707288  1.50000000
C   1372.43000000  18.71658503  1.50000000
C   1372.43000000  21.17609717  1.50000000
C   1372.43000000  23.63560932  1.50000000
C   1372.43000000  26.09512147  1.50000000
C   1373.85000000  1.50000000  1.50000000
C   1373.85000000  3.95951215  1.50000000
C   1373.85000000  6.41902429  1.50000000
C   1373.85000000  8.87853644  1.50000000
C   1373.85000000  11.33804859  1.50000000
C   1373.85000000  13.79756073  1.50000000
C   1373.85000000  16.25707288  1.50000000
C   1373.85000000  18.71658503  1.50000000
C   1373.85000000  21.17609717  1.50000000
C   1373.85000000  23.63560932  1.50000000
C   1373.85000000  26.09512147  1.50000000
C   1374.56000000  2.72975607  1.50000000
C   1374.56000000  5.18926822  1.50000000
C   1374.56000000  7.64878037  1.50000000
C   1374.56000000  10.10829251  1.50000000
C   1374.56000000  12.56780466  1.50000000
C   1374.56000000  15.02731681  1.50000000
C   1374.56000000  17.48682895  1.50000000
C   1374.56000000  19.94634110  1.50000000
C   1374.56000000  22.40585325  1.50000000
C   1374.56000000  24.86536539  1.50000000
C   1375.98000000  2.72975607  1.50000000
C   1375.98000000  5.18926822  1.50000000
C   1375.98000000  7.64878037  1.50000000
C   1375.98000000  10.10829251  1.50000000
C   1375.98000000  12.56780466  1.50000000
C   1375.98000000  15.02731681  1.50000000
C   1375.98000000  17.48682895  1.50000000
C   1375.98000000  19.94634110  1.50000000
C   1375.98000000  22.40585325  1.50000000
C   1375.98000000  24.86536539  1.50000000
C   1376.69000000  1.50000000  1.50000000
C   1376.69000000  3.95951215  1.50000000
C   1376.69000000  6.41902429  1.50000000
C   1376.69000000  8.87853644  1.50000000
C   1376.69000000  11.33804859  1.50000000
C   1376.69000000  13.79756073  1.50000000
C   1376.69000000  16.25707288  1.50000000
C   1376.69000000  18.71658503  1.50000000
C   1376.69000000  21.17609717  1.50000000
C   1376.69000000  23.63560932  1.50000000
C   1376.69000000  26.09512147  1.50000000
C   1378.11000000  1.50000000  1.50000000
C   1378.11000000  3.95951215  1.50000000
C   1378.11000000  6.41902429  1.50000000
C   1378.11000000  8.87853644  1.50000000
C   1378.11000000  11.33804859  1.50000000
C   1378.11000000  13.79756073  1.50000000
C   1378.11000000  16.25707288  1.50000000
C   1378.11000000  18.71658503  1.50000000
C   1378.11000000  21.17609717  1.50000000
C   1378.11000000  23.63560932  1.50000000
C   1378.11000000  26.09512147  1.50000000
C   1378.82000000  2.72975607  1.50000000
C   1378.82000000  5.18926822  1.50000000
C   1378.82000000  7.64878037  1.50000000
C   1378.82000000  10.10829251  1.50000000
C   1378.82000000  12.56780466  1.50000000
C   1378.82000000  15.02731681  1.50000000
C   1378.82000000  17.48682895  1.50000000
C   1378.82000000  19.94634110  1.50000000
C   1378.82000000  22.40585325  1.50000000
C   1378.82000000  24.86536539  1.50000000
C   1380.24000000  2.72975607  1.50000000
C   1380.24000000  5.18926822  1.50000000
C   1380.24000000  7.64878037  1.50000000
C   1380.24000000  10.10829251  1.50000000
C   1380.24000000  12.56780466  1.50000000
C   1380.24000000  15.02731681  1.50000000
C   1380.24000000  17.48682895  1.50000000
C   1380.24000000  19.94634110  1.50000000
C   1380.24000000  22.40585325  1.50000000
C   1380.24000000  24.86536539  1.50000000
C   1380.95000000  1.50000000  1.50000000
C   1380.95000000  3.95951215  1.50000000
C   1380.95000000  6.41902429  1.50000000
C   1380.95000000  8.87853644  1.50000000
C   1380.95000000  11.33804859  1.50000000
C   1380.95000000  13.79756073  1.50000000
C   1380.95000000  16.25707288  1.50000000
C   1380.95000000  18.71658503  1.50000000
C   1380.95000000  21.17609717  1.50000000
C   1380.95000000  23.63560932  1.50000000
C   1380.95000000  26.09512147  1.50000000
C   1382.37000000  1.50000000  1.50000000
C   1382.37000000  3.95951215  1.50000000
C   1382.37000000  6.41902429  1.50000000
C   1382.37000000  8.87853644  1.50000000
C   1382.37000000  11.33804859  1.50000000
C   1382.37000000  13.79756073  1.50000000
C   1382.37000000  16.25707288  1.50000000
C   1382.37000000  18.71658503  1.50000000
C   1382.37000000  21.17609717  1.50000000
C   1382.37000000  23.63560932  1.50000000
C   1382.37000000  26.09512147  1.50000000
C   1383.08000000  2.72975607  1.50000000
C   1383.08000000  5.18926822  1.50000000
C   1383.08000000  7.64878037  1.50000000
C   1383.08000000  10.10829251  1.50000000
C   1383.08000000  12.56780466  1.50000000
C   1383.08000000  15.02731681  1.50000000
C   1383.08000000  17.48682895  1.50000000
C   1383.08000000  19.94634110  1.50000000
C   1383.08000000  22.40585325  1.50000000
C   1383.08000000  24.86536539  1.50000000
C   1384.50000000  2.72975607  1.50000000
C   1384.50000000  5.18926822  1.50000000
C   1384.50000000  7.64878037  1.50000000
C   1384.50000000  10.10829251  1.50000000
C   1384.50000000  12.56780466  1.50000000
C   1384.50000000  15.02731681  1.50000000
C   1384.50000000  17.48682895  1.50000000
C   1384.50000000  19.94634110  1.50000000
C   1384.50000000  22.40585325  1.50000000
C   1384.50000000  24.86536539  1.50000000
C   1385.21000000  1.50000000  1.50000000
C   1385.21000000  3.95951215  1.50000000
C   1385.21000000  6.41902429  1.50000000
C   1385.21000000  8.87853644  1.50000000
C   1385.21000000  11.33804859  1.50000000
C   1385.21000000  13.79756073  1.50000000
C   1385.21000000  16.25707288  1.50000000
C   1385.21000000  18.71658503  1.50000000
C   1385.21000000  21.17609717  1.50000000
C   1385.21000000  23.63560932  1.50000000
C   1385.21000000  26.09512147  1.50000000
C   1386.63000000  1.50000000  1.50000000
C   1386.63000000  3.95951215  1.50000000
C   1386.63000000  6.41902429  1.50000000
C   1386.63000000  8.87853644  1.50000000
C   1386.63000000  11.33804859  1.50000000
C   1386.63000000  13.79756073  1.50000000
C   1386.63000000  16.25707288  1.50000000
C   1386.63000000  18.71658503  1.50000000
C   1386.63000000  21.17609717  1.50000000
C   1386.63000000  23.63560932  1.50000000
C   1386.63000000  26.09512147  1.50000000
C   1387.34000000  2.72975607  1.50000000
C   1387.34000000  5.18926822  1.50000000
C   1387.34000000  7.64878037  1.50000000
C   1387.34000000  10.10829251  1.50000000
C   1387.34000000  12.56780466  1.50000000
C   1387.34000000  15.02731681  1.50000000
C   1387.34000000  17.48682895  1.50000000
C   1387.34000000  19.94634110  1.50000000
C   1387.34000000  22.40585325  1.50000000
C   1387.34000000  24.86536539  1.50000000
C   1388.76000000  2.72975607  1.50000000
C   1388.76000000  5.18926822  1.50000000
C   1388.76000000  7.64878037  1.50000000
C   1388.76000000  10.10829251  1.50000000
C   1388.76000000  12.56780466  1.50000000
C   1388.76000000  15.02731681  1.50000000
C   1388.76000000  17.48682895  1.50000000
C   1388.76000000  19.94634110  1.50000000
C   1388.76000000  22.40585325  1.50000000
C   1388.76000000  24.86536539  1.50000000
C   1389.47000000  1.50000000  1.50000000
C   1389.47000000  3.95951215  1.50000000
C   1389.47000000  6.41902429  1.50000000
C   1389.47000000  8.87853644  1.50000000
C   1389.47000000  11.33804859  1.50000000
C   1389.47000000  13.79756073  1.50000000
C   1389.47000000  16.25707288  1.50000000
C   1389.47000000  18.71658503  1.50000000
C   1389.47000000  21.17609717  1.50000000
C   1389.47000000  23.63560932  1.50000000
C   1389.47000000  26.09512147  1.50000000
C   1390.89000000  1.50000000  1.50000000
C   1390.89000000  3.95951215  1.50000000
C   1390.89000000  6.41902429  1.50000000
C   1390.89000000  8.87853644  1.50000000
C   1390.89000000  11.33804859  1.50000000
C   1390.89000000  13.79756073  1.50000000
C   1390.89000000  16.25707288  1.50000000
C   1390.89000000  18.71658503  1.50000000
C   1390.89000000  21.17609717  1.50000000
C   1390.89000000  23.63560932  1.50000000
C   1390.89000000  26.09512147  1.50000000
C   1391.60000000  2.72975607  1.50000000
C   1391.60000000  5.18926822  1.50000000
C   1391.60000000  7.64878037  1.50000000
C   1391.60000000  10.10829251  1.50000000
C   1391.60000000  12.56780466  1.50000000
C   1391.60000000  15.02731681  1.50000000
C   1391.60000000  17.48682895  1.50000000
C   1391.60000000  19.94634110  1.50000000
C   1391.60000000  22.40585325  1.50000000
C   1391.60000000  24.86536539  1.50000000
C   1393.02000000  2.72975607  1.50000000
C   1393.02000000  5.18926822  1.50000000
C   1393.02000000  7.64878037  1.50000000
C   1393.02000000  10.10829251  1.50000000
C   1393.02000000  12.56780466  1.50000000
C   1393.02000000  15.02731681  1.50000000
C   1393.02000000  17.48682895  1.50000000
C   1393.02000000  19.94634110  1.50000000
C   1393.02000000  22.40585325  1.50000000
C   1393.02000000  24.86536539  1.50000000
C   1393.73000000  1.50000000  1.50000000
C   1393.73000000  3.95951215  1.50000000
C   1393.73000000  6.41902429  1.50000000
C   1393.73000000  8.87853644  1.50000000
C   1393.73000000  11.33804859  1.50000000
C   1393.73000000  13.79756073  1.50000000
C   1393.73000000  16.25707288  1.50000000
C   1393.73000000  18.71658503  1.50000000
C   1393.73000000  21.17609717  1.50000000
C   1393.73000000  23.63560932  1.50000000
C   1393.73000000  26.09512147  1.50000000
C   1395.15000000  1.50000000  1.50000000
C   1395.15000000  3.95951215  1.50000000
C   1395.15000000  6.41902429  1.50000000
C   1395.15000000  8.87853644  1.50000000
C   1395.15000000  11.33804859  1.50000000
C   1395.15000000  13.79756073  1.50000000
C   1395.15000000  16.25707288  1.50000000
C   1395.15000000  18.71658503  1.50000000
C   1395.15000000  21.17609717  1.50000000
C   1395.15000000  23.63560932  1.50000000
C   1395.15000000  26.09512147  1.50000000
C   1395.86000000  2.72975607  1.50000000
C   1395.86000000  5.18926822  1.50000000
C   1395.86000000  7.64878037  1.50000000
C   1395.86000000  10.10829251  1.50000000
C   1395.86000000  12.56780466  1.50000000
C   1395.86000000  15.02731681  1.50000000
C   1395.86000000  17.48682895  1.50000000
C   1395.86000000  19.94634110  1.50000000
C   1395.86000000  22.40585325  1.50000000
C   1395.86000000  24.86536539  1.50000000
C   1397.28000000  2.72975607  1.50000000
C   1397.28000000  5.18926822  1.50000000
C   1397.28000000  7.64878037  1.50000000
C   1397.28000000  10.10829251  1.50000000
C   1397.28000000  12.56780466  1.50000000
C   1397.28000000  15.02731681  1.50000000
C   1397.28000000  17.48682895  1.50000000
C   1397.28000000  19.94634110  1.50000000
C   1397.28000000  22.40585325  1.50000000
C   1397.28000000  24.86536539  1.50000000
C   1397.99000000  1.50000000  1.50000000
C   1397.99000000  3.95951215  1.50000000
C   1397.99000000  6.41902429  1.50000000
C   1397.99000000  8.87853644  1.50000000
C   1397.99000000  11.33804859  1.50000000
C   1397.99000000  13.79756073  1.50000000
C   1397.99000000  16.25707288  1.50000000
C   1397.99000000  18.71658503  1.50000000
C   1397.99000000  21.17609717  1.50000000
C   1397.99000000  23.63560932  1.50000000
C   1397.99000000  26.09512147  1.50000000
C   1399.41000000  1.50000000  1.50000000
C   1399.41000000  3.95951215  1.50000000
C   1399.41000000  6.41902429  1.50000000
C   1399.41000000  8.87853644  1.50000000
C   1399.41000000  11.33804859  1.50000000
C   1399.41000000  13.79756073  1.50000000
C   1399.41000000  16.25707288  1.50000000
C   1399.41000000  18.71658503  1.50000000
C   1399.41000000  21.17609717  1.50000000
C   1399.41000000  23.63560932  1.50000000
C   1399.41000000  26.09512147  1.50000000
C   1400.12000000  2.72975607  1.50000000
C   1400.12000000  5.18926822  1.50000000
C   1400.12000000  7.64878037  1.50000000
C   1400.12000000  10.10829251  1.50000000
C   1400.12000000  12.56780466  1.50000000
C   1400.12000000  15.02731681  1.50000000
C   1400.12000000  17.48682895  1.50000000
C   1400.12000000  19.94634110  1.50000000
C   1400.12000000  22.40585325  1.50000000
C   1400.12000000  24.86536539  1.50000000
C   1401.54000000  2.72975607  1.50000000
C   1401.54000000  5.18926822  1.50000000
C   1401.54000000  7.64878037  1.50000000
C   1401.54000000  10.10829251  1.50000000
C   1401.54000000  12.56780466  1.50000000
C   1401.54000000  15.02731681  1.50000000
C   1401.54000000  17.48682895  1.50000000
C   1401.54000000  19.94634110  1.50000000
C   1401.54000000  22.40585325  1.50000000
C   1401.54000000  24.86536539  1.50000000
C   1402.25000000  1.50000000  1.50000000
C   1402.25000000  3.95951215  1.50000000
C   1402.25000000  6.41902429  1.50000000
C   1402.25000000  8.87853644  1.50000000
C   1402.25000000  11.33804859  1.50000000
C   1402.25000000  13.79756073  1.50000000
C   1402.25000000  16.25707288  1.50000000
C   1402.25000000  18.71658503  1.50000000
C   1402.25000000  21.17609717  1.50000000
C   1402.25000000  23.63560932  1.50000000
C   1402.25000000  26.09512147  1.50000000
C   1403.67000000  1.50000000  1.50000000
C   1403.67000000  3.95951215  1.50000000
C   1403.67000000  6.41902429  1.50000000
C   1403.67000000  8.87853644  1.50000000
C   1403.67000000  11.33804859  1.50000000
C   1403.67000000  13.79756073  1.50000000
C   1403.67000000  16.25707288  1.50000000
C   1403.67000000  18.71658503  1.50000000
C   1403.67000000  21.17609717  1.50000000
C   1403.67000000  23.63560932  1.50000000
C   1403.67000000  26.09512147  1.50000000
C   1404.38000000  2.72975607  1.50000000
C   1404.38000000  5.18926822  1.50000000
C   1404.38000000  7.64878037  1.50000000
C   1404.38000000  10.10829251  1.50000000
C   1404.38000000  12.56780466  1.50000000
C   1404.38000000  15.02731681  1.50000000
C   1404.38000000  17.48682895  1.50000000
C   1404.38000000  19.94634110  1.50000000
C   1404.38000000  22.40585325  1.50000000
C   1404.38000000  24.86536539  1.50000000
C   1405.80000000  2.72975607  1.50000000
C   1405.80000000  5.18926822  1.50000000
C   1405.80000000  7.64878037  1.50000000
C   1405.80000000  10.10829251  1.50000000
C   1405.80000000  12.56780466  1.50000000
C   1405.80000000  15.02731681  1.50000000
C   1405.80000000  17.48682895  1.50000000
C   1405.80000000  19.94634110  1.50000000
C   1405.80000000  22.40585325  1.50000000
C   1405.80000000  24.86536539  1.50000000
C   1406.51000000  1.50000000  1.50000000
C   1406.51000000  3.95951215  1.50000000
C   1406.51000000  6.41902429  1.50000000
C   1406.51000000  8.87853644  1.50000000
C   1406.51000000  11.33804859  1.50000000
C   1406.51000000  13.79756073  1.50000000
C   1406.51000000  16.25707288  1.50000000
C   1406.51000000  18.71658503  1.50000000
C   1406.51000000  21.17609717  1.50000000
C   1406.51000000  23.63560932  1.50000000
C   1406.51000000  26.09512147  1.50000000
C   1407.93000000  1.50000000  1.50000000
C   1407.93000000  3.95951215  1.50000000
C   1407.93000000  6.41902429  1.50000000
C   1407.93000000  8.87853644  1.50000000
C   1407.93000000  11.33804859  1.50000000
C   1407.93000000  13.79756073  1.50000000
C   1407.93000000  16.25707288  1.50000000
C   1407.93000000  18.71658503  1.50000000
C   1407.93000000  21.17609717  1.50000000
C   1407.93000000  23.63560932  1.50000000
C   1407.93000000  26.09512147  1.50000000
C   1408.64000000  2.72975607  1.50000000
C   1408.64000000  5.18926822  1.50000000
C   1408.64000000  7.64878037  1.50000000
C   1408.64000000  10.10829251  1.50000000
C   1408.64000000  12.56780466  1.50000000
C   1408.64000000  15.02731681  1.50000000
C   1408.64000000  17.48682895  1.50000000
C   1408.64000000  19.94634110  1.50000000
C   1408.64000000  22.40585325  1.50000000
C   1408.64000000  24.86536539  1.50000000
C   1410.06000000  2.72975607  1.50000000
C   1410.06000000  5.18926822  1.50000000
C   1410.06000000  7.64878037  1.50000000
C   1410.06000000  10.10829251  1.50000000
C   1410.06000000  12.56780466  1.50000000
C   1410.06000000  15.02731681  1.50000000
C   1410.06000000  17.48682895  1.50000000
C   1410.06000000  19.94634110  1.50000000
C   1410.06000000  22.40585325  1.50000000
C   1410.06000000  24.86536539  1.50000000
C   1410.77000000  1.50000000  1.50000000
C   1410.77000000  3.95951215  1.50000000
C   1410.77000000  6.41902429  1.50000000
C   1410.77000000  8.87853644  1.50000000
C   1410.77000000  11.33804859  1.50000000
C   1410.77000000  13.79756073  1.50000000
C   1410.77000000  16.25707288  1.50000000
C   1410.77000000  18.71658503  1.50000000
C   1410.77000000  21.17609717  1.50000000
C   1410.77000000  23.63560932  1.50000000
C   1410.77000000  26.09512147  1.50000000
C   1412.19000000  1.50000000  1.50000000
C   1412.19000000  3.95951215  1.50000000
C   1412.19000000  6.41902429  1.50000000
C   1412.19000000  8.87853644  1.50000000
C   1412.19000000  11.33804859  1.50000000
C   1412.19000000  13.79756073  1.50000000
C   1412.19000000  16.25707288  1.50000000
C   1412.19000000  18.71658503  1.50000000
C   1412.19000000  21.17609717  1.50000000
C   1412.19000000  23.63560932  1.50000000
C   1412.19000000  26.09512147  1.50000000
C   1412.90000000  2.72975607  1.50000000
C   1412.90000000  5.18926822  1.50000000
C   1412.90000000  7.64878037  1.50000000
C   1412.90000000  10.10829251  1.50000000
C   1412.90000000  12.56780466  1.50000000
C   1412.90000000  15.02731681  1.50000000
C   1412.90000000  17.48682895  1.50000000
C   1412.90000000  19.94634110  1.50000000
C   1412.90000000  22.40585325  1.50000000
C   1412.90000000  24.86536539  1.50000000
C   1414.32000000  2.72975607  1.50000000
C   1414.32000000  5.18926822  1.50000000
C   1414.32000000  7.64878037  1.50000000
C   1414.32000000  10.10829251  1.50000000
C   1414.32000000  12.56780466  1.50000000
C   1414.32000000  15.02731681  1.50000000
C   1414.32000000  17.48682895  1.50000000
C   1414.32000000  19.94634110  1.50000000
C   1414.32000000  22.40585325  1.50000000
C   1414.32000000  24.86536539  1.50000000
C   1415.03000000  1.50000000  1.50000000
C   1415.03000000  3.95951215  1.50000000
C   1415.03000000  6.41902429  1.50000000
C   1415.03000000  8.87853644  1.50000000
C   1415.03000000  11.33804859  1.50000000
C   1415.03000000  13.79756073  1.50000000
C   1415.03000000  16.25707288  1.50000000
C   1415.03000000  18.71658503  1.50000000
C   1415.03000000  21.17609717  1.50000000
C   1415.03000000  23.63560932  1.50000000
C   1415.03000000  26.09512147  1.50000000
C   1416.45000000  1.50000000  1.50000000
C   1416.45000000  3.95951215  1.50000000
C   1416.45000000  6.41902429  1.50000000
C   1416.45000000  8.87853644  1.50000000
C   1416.45000000  11.33804859  1.50000000
C   1416.45000000  13.79756073  1.50000000
C   1416.45000000  16.25707288  1.50000000
C   1416.45000000  18.71658503  1.50000000
C   1416.45000000  21.17609717  1.50000000
C   1416.45000000  23.63560932  1.50000000
C   1416.45000000  26.09512147  1.50000000
C   1417.16000000  2.72975607  1.50000000
C   1417.16000000  5.18926822  1.50000000
C   1417.16000000  7.64878037  1.50000000
C   1417.16000000  10.10829251  1.50000000
C   1417.16000000  12.56780466  1.50000000
C   1417.16000000  15.02731681  1.50000000
C   1417.16000000  17.48682895  1.50000000
C   1417.16000000  19.94634110  1.50000000
C   1417.16000000  22.40585325  1.50000000
C   1417.16000000  24.86536539  1.50000000
C   1418.58000000  2.72975607  1.50000000
C   1418.58000000  5.18926822  1.50000000
C   1418.58000000  7.64878037  1.50000000
C   1418.58000000  10.10829251  1.50000000
C   1418.58000000  12.56780466  1.50000000
C   1418.58000000  15.02731681  1.50000000
C   1418.58000000  17.48682895  1.50000000
C   1418.58000000  19.94634110  1.50000000
C   1418.58000000  22.40585325  1.50000000
C   1418.58000000  24.86536539  1.50000000
C   1419.29000000  1.50000000  1.50000000
C   1419.29000000  3.95951215  1.50000000
C   1419.29000000  6.41902429  1.50000000
C   1419.29000000  8.87853644  1.50000000
C   1419.29000000  11.33804859  1.50000000
C   1419.29000000  13.79756073  1.50000000
C   1419.29000000  16.25707288  1.50000000
C   1419.29000000  18.71658503  1.50000000
C   1419.29000000  21.17609717  1.50000000
C   1419.29000000  23.63560932  1.50000000
C   1419.29000000  26.09512147  1.50000000
C   1420.71000000  1.50000000  1.50000000
C   1420.71000000  3.95951215  1.50000000
C   1420.71000000  6.41902429  1.50000000
C   1420.71000000  8.87853644  1.50000000
C   1420.71000000  11.33804859  1.50000000
C   1420.71000000  13.79756073  1.50000000
C   1420.71000000  16.25707288  1.50000000
C   1420.71000000  18.71658503  1.50000000
C   1420.71000000  21.17609717  1.50000000
C   1420.71000000  23.63560932  1.50000000
C   1420.71000000  26.09512147  1.50000000
C   1421.42000000  2.72975607  1.50000000
C   1421.42000000  5.18926822  1.50000000
C   1421.42000000  7.64878037  1.50000000
C   1421.42000000  10.10829251  1.50000000
C   1421.42000000  12.56780466  1.50000000
C   1421.42000000  15.02731681  1.50000000
C   1421.42000000  17.48682895  1.50000000
C   1421.42000000  19.94634110  1.50000000
C   1421.42000000  22.40585325  1.50000000
C   1421.42000000  24.86536539  1.50000000
C   1422.84000000  2.72975607  1.50000000
C   1422.84000000  5.18926822  1.50000000
C   1422.84000000  7.64878037  1.50000000
C   1422.84000000  10.10829251  1.50000000
C   1422.84000000  12.56780466  1.50000000
C   1422.84000000  15.02731681  1.50000000
C   1422.84000000  17.48682895  1.50000000
C   1422.84000000  19.94634110  1.50000000
C   1422.84000000  22.40585325  1.50000000
C   1422.84000000  24.86536539  1.50000000
C   1423.55000000  1.50000000  1.50000000
C   1423.55000000  3.95951215  1.50000000
C   1423.55000000  6.41902429  1.50000000
C   1423.55000000  8.87853644  1.50000000
C   1423.55000000  11.33804859  1.50000000
C   1423.55000000  13.79756073  1.50000000
C   1423.55000000  16.25707288  1.50000000
C   1423.55000000  18.71658503  1.50000000
C   1423.55000000  21.17609717  1.50000000
C   1423.55000000  23.63560932  1.50000000
C   1423.55000000  26.09512147  1.50000000
C   1424.97000000  1.50000000  1.50000000
C   1424.97000000  3.95951215  1.50000000
C   1424.97000000  6.41902429  1.50000000
C   1424.97000000  8.87853644  1.50000000
C   1424.97000000  11.33804859  1.50000000
C   1424.97000000  13.79756073  1.50000000
C   1424.97000000  16.25707288  1.50000000
C   1424.97000000  18.71658503  1.50000000
C   1424.97000000  21.17609717  1.50000000
C   1424.97000000  23.63560932  1.50000000
C   1424.97000000  26.09512147  1.50000000
C   1425.68000000  2.72975607  1.50000000
C   1425.68000000  5.18926822  1.50000000
C   1425.68000000  7.64878037  1.50000000
C   1425.68000000  10.10829251  1.50000000
C   1425.68000000  12.56780466  1.50000000
C   1425.68000000  15.02731681  1.50000000
C   1425.68000000  17.48682895  1.50000000
C   1425.68000000  19.94634110  1.50000000
C   1425.68000000  22.40585325  1.50000000
C   1425.68000000  24.86536539  1.50000000
C   1427.10000000  2.72975607  1.50000000
C   1427.10000000  5.18926822  1.50000000
C   1427.10000000  7.64878037  1.50000000
C   1427.10000000  10.10829251  1.50000000
C   1427.10000000  12.56780466  1.50000000
C   1427.10000000  15.02731681  1.50000000
C   1427.10000000  17.48682895  1.50000000
C   1427.10000000  19.94634110  1.50000000
C   1427.10000000  22.40585325  1.50000000
C   1427.10000000  24.86536539  1.50000000
C   1427.81000000  1.50000000  1.50000000
C   1427.81000000  3.95951215  1.50000000
C   1427.81000000  6.41902429  1.50000000
C   1427.81000000  8.87853644  1.50000000
C   1427.81000000  11.33804859  1.50000000
C   1427.81000000  13.79756073  1.50000000
C   1427.81000000  16.25707288  1.50000000
C   1427.81000000  18.71658503  1.50000000
C   1427.81000000  21.17609717  1.50000000
C   1427.81000000  23.63560932  1.50000000
C   1427.81000000  26.09512147  1.50000000
C   1429.23000000  1.50000000  1.50000000
C   1429.23000000  3.95951215  1.50000000
C   1429.23000000  6.41902429  1.50000000
C   1429.23000000  8.87853644  1.50000000
C   1429.23000000  11.33804859  1.50000000
C   1429.23000000  13.79756073  1.50000000
C   1429.23000000  16.25707288  1.50000000
C   1429.23000000  18.71658503  1.50000000
C   1429.23000000  21.17609717  1.50000000
C   1429.23000000  23.63560932  1.50000000
C   1429.23000000  26.09512147  1.50000000
C   1429.94000000  2.72975607  1.50000000
C   1429.94000000  5.18926822  1.50000000
C   1429.94000000  7.64878037  1.50000000
C   1429.94000000  10.10829251  1.50000000
C   1429.94000000  12.56780466  1.50000000
C   1429.94000000  15.02731681  1.50000000
C   1429.94000000  17.48682895  1.50000000
C   1429.94000000  19.94634110  1.50000000
C   1429.94000000  22.40585325  1.50000000
C   1429.94000000  24.86536539  1.50000000
C   1431.36000000  2.72975607  1.50000000
C   1431.36000000  5.18926822  1.50000000
C   1431.36000000  7.64878037  1.50000000
C   1431.36000000  10.10829251  1.50000000
C   1431.36000000  12.56780466  1.50000000
C   1431.36000000  15.02731681  1.50000000
C   1431.36000000  17.48682895  1.50000000
C   1431.36000000  19.94634110  1.50000000
C   1431.36000000  22.40585325  1.50000000
C   1431.36000000  24.86536539  1.50000000
C   1432.07000000  1.50000000  1.50000000
C   1432.07000000  3.95951215  1.50000000
C   1432.07000000  6.41902429  1.50000000
C   1432.07000000  8.87853644  1.50000000
C   1432.07000000  11.33804859  1.50000000
C   1432.07000000  13.79756073  1.50000000
C   1432.07000000  16.25707288  1.50000000
C   1432.07000000  18.71658503  1.50000000
C   1432.07000000  21.17609717  1.50000000
C   1432.07000000  23.63560932  1.50000000
C   1432.07000000  26.09512147  1.50000000
C   1433.49000000  1.50000000  1.50000000
C   1433.49000000  3.95951215  1.50000000
C   1433.49000000  6.41902429  1.50000000
C   1433.49000000  8.87853644  1.50000000
C   1433.49000000  11.33804859  1.50000000
C   1433.49000000  13.79756073  1.50000000
C   1433.49000000  16.25707288  1.50000000
C   1433.49000000  18.71658503  1.50000000
C   1433.49000000  21.17609717  1.50000000
C   1433.49000000  23.63560932  1.50000000
C   1433.49000000  26.09512147  1.50000000
C   1434.20000000  2.72975607  1.50000000
C   1434.20000000  5.18926822  1.50000000
C   1434.20000000  7.64878037  1.50000000
C   1434.20000000  10.10829251  1.50000000
C   1434.20000000  12.56780466  1.50000000
C   1434.20000000  15.02731681  1.50000000
C   1434.20000000  17.48682895  1.50000000
C   1434.20000000  19.94634110  1.50000000
C   1434.20000000  22.40585325  1.50000000
C   1434.20000000  24.86536539  1.50000000
C   1435.62000000  2.72975607  1.50000000
C   1435.62000000  5.18926822  1.50000000
C   1435.62000000  7.64878037  1.50000000
C   1435.62000000  10.10829251  1.50000000
C   1435.62000000  12.56780466  1.50000000
C   1435.62000000  15.02731681  1.50000000
C   1435.62000000  17.48682895  1.50000000
C   1435.62000000  19.94634110  1.50000000
C   1435.62000000  22.40585325  1.50000000
C   1435.62000000  24.86536539  1.50000000
C   1436.33000000  1.50000000  1.50000000
C   1436.33000000  3.95951215  1.50000000
C   1436.33000000  6.41902429  1.50000000
C   1436.33000000  8.87853644  1.50000000
C   1436.33000000  11.33804859  1.50000000
C   1436.33000000  13.79756073  1.50000000
C   1436.33000000  16.25707288  1.50000000
C   1436.33000000  18.71658503  1.50000000
C   1436.33000000  21.17609717  1.50000000
C   1436.33000000  23.63560932  1.50000000
C   1436.33000000  26.09512147  1.50000000
C   1437.75000000  1.50000000  1.50000000
C   1437.75000000  3.95951215  1.50000000
C   1437.75000000  6.41902429  1.50000000
C   1437.75000000  8.87853644  1.50000000
C   1437.75000000  11.33804859  1.50000000
C   1437.75000000  13.79756073  1.50000000
C   1437.75000000  16.25707288  1.50000000
C   1437.75000000  18.71658503  1.50000000
C   1437.75000000  21.17609717  1.50000000
C   1437.75000000  23.63560932  1.50000000
C   1437.75000000  26.09512147  1.50000000
C   1438.46000000  2.72975607  1.50000000
C   1438.46000000  5.18926822  1.50000000
C   1438.46000000  7.64878037  1.50000000
C   1438.46000000  10.10829251  1.50000000
C   1438.46000000  12.56780466  1.50000000
C   1438.46000000  15.02731681  1.50000000
C   1438.46000000  17.48682895  1.50000000
C   1438.46000000  19.94634110  1.50000000
C   1438.46000000  22.40585325  1.50000000
C   1438.46000000  24.86536539  1.50000000
C   1439.88000000  2.72975607  1.50000000
C   1439.88000000  5.18926822  1.50000000
C   1439.88000000  7.64878037  1.50000000
C   1439.88000000  10.10829251  1.50000000
C   1439.88000000  12.56780466  1.50000000
C   1439.88000000  15.02731681  1.50000000
C   1439.88000000  17.48682895  1.50000000
C   1439.88000000  19.94634110  1.50000000
C   1439.88000000  22.40585325  1.50000000
C   1439.88000000  24.86536539  1.50000000
C   1440.59000000  1.50000000  1.50000000
C   1440.59000000  3.95951215  1.50000000
C   1440.59000000  6.41902429  1.50000000
C   1440.59000000  8.87853644  1.50000000
C   1440.59000000  11.33804859  1.50000000
C   1440.59000000  13.79756073  1.50000000
C   1440.59000000  16.25707288  1.50000000
C   1440.59000000  18.71658503  1.50000000
C   1440.59000000  21.17609717  1.50000000
C   1440.59000000  23.63560932  1.50000000
C   1440.59000000  26.09512147  1.50000000
C   1442.01000000  1.50000000  1.50000000
C   1442.01000000  3.95951215  1.50000000
C   1442.01000000  6.41902429  1.50000000
C   1442.01000000  8.87853644  1.50000000
C   1442.01000000  11.33804859  1.50000000
C   1442.01000000  13.79756073  1.50000000
C   1442.01000000  16.25707288  1.50000000
C   1442.01000000  18.71658503  1.50000000
C   1442.01000000  21.17609717  1.50000000
C   1442.01000000  23.63560932  1.50000000
C   1442.01000000  26.09512147  1.50000000
C   1442.72000000  2.72975607  1.50000000
C   1442.72000000  5.18926822  1.50000000
C   1442.72000000  7.64878037  1.50000000
C   1442.72000000  10.10829251  1.50000000
C   1442.72000000  12.56780466  1.50000000
C   1442.72000000  15.02731681  1.50000000
C   1442.72000000  17.48682895  1.50000000
C   1442.72000000  19.94634110  1.50000000
C   1442.72000000  22.40585325  1.50000000
C   1442.72000000  24.86536539  1.50000000
C   1444.14000000  2.72975607  1.50000000
C   1444.14000000  5.18926822  1.50000000
C   1444.14000000  7.64878037  1.50000000
C   1444.14000000  10.10829251  1.50000000
C   1444.14000000  12.56780466  1.50000000
C   1444.14000000  15.02731681  1.50000000
C   1444.14000000  17.48682895  1.50000000
C   1444.14000000  19.94634110  1.50000000
C   1444.14000000  22.40585325  1.50000000
C   1444.14000000  24.86536539  1.50000000
C   1444.85000000  1.50000000  1.50000000
C   1444.85000000  3.95951215  1.50000000
C   1444.85000000  6.41902429  1.50000000
C   1444.85000000  8.87853644  1.50000000
C   1444.85000000  11.33804859  1.50000000
C   1444.85000000  13.79756073  1.50000000
C   1444.85000000  16.25707288  1.50000000
C   1444.85000000  18.71658503  1.50000000
C   1444.85000000  21.17609717  1.50000000
C   1444.85000000  23.63560932  1.50000000
C   1444.85000000  26.09512147  1.50000000
C   1446.27000000  1.50000000  1.50000000
C   1446.27000000  3.95951215  1.50000000
C   1446.27000000  6.41902429  1.50000000
C   1446.27000000  8.87853644  1.50000000
C   1446.27000000  11.33804859  1.50000000
C   1446.27000000  13.79756073  1.50000000
C   1446.27000000  16.25707288  1.50000000
C   1446.27000000  18.71658503  1.50000000
C   1446.27000000  21.17609717  1.50000000
C   1446.27000000  23.63560932  1.50000000
C   1446.27000000  26.09512147  1.50000000
C   1446.98000000  2.72975607  1.50000000
C   1446.98000000  5.18926822  1.50000000
C   1446.98000000  7.64878037  1.50000000
C   1446.98000000  10.10829251  1.50000000
C   1446.98000000  12.56780466  1.50000000
C   1446.98000000  15.02731681  1.50000000
C   1446.98000000  17.48682895  1.50000000
C   1446.98000000  19.94634110  1.50000000
C   1446.98000000  22.40585325  1.50000000
C   1446.98000000  24.86536539  1.50000000
C   1448.40000000  2.72975607  1.50000000
C   1448.40000000  5.18926822  1.50000000
C   1448.40000000  7.64878037  1.50000000
C   1448.40000000  10.10829251  1.50000000
C   1448.40000000  12.56780466  1.50000000
C   1448.40000000  15.02731681  1.50000000
C   1448.40000000  17.48682895  1.50000000
C   1448.40000000  19.94634110  1.50000000
C   1448.40000000  22.40585325  1.50000000
C   1448.40000000  24.86536539  1.50000000
C   1449.11000000  1.50000000  1.50000000
C   1449.11000000  3.95951215  1.50000000
C   1449.11000000  6.41902429  1.50000000
C   1449.11000000  8.87853644  1.50000000
C   1449.11000000  11.33804859  1.50000000
C   1449.11000000  13.79756073  1.50000000
C   1449.11000000  16.25707288  1.50000000
C   1449.11000000  18.71658503  1.50000000
C   1449.11000000  21.17609717  1.50000000
C   1449.11000000  23.63560932  1.50000000
C   1449.11000000  26.09512147  1.50000000
C   1450.53000000  1.50000000  1.50000000
C   1450.53000000  3.95951215  1.50000000
C   1450.53000000  6.41902429  1.50000000
C   1450.53000000  8.87853644  1.50000000
C   1450.53000000  11.33804859  1.50000000
C   1450.53000000  13.79756073  1.50000000
C   1450.53000000  16.25707288  1.50000000
C   1450.53000000  18.71658503  1.50000000
C   1450.53000000  21.17609717  1.50000000
C   1450.53000000  23.63560932  1.50000000
C   1450.53000000  26.09512147  1.50000000
C   1451.24000000  2.72975607  1.50000000
C   1451.24000000  5.18926822  1.50000000
C   1451.24000000  7.64878037  1.50000000
C   1451.24000000  10.10829251  1.50000000
C   1451.24000000  12.56780466  1.50000000
C   1451.24000000  15.02731681  1.50000000
C   1451.24000000  17.48682895  1.50000000
C   1451.24000000  19.94634110  1.50000000
C   1451.24000000  22.40585325  1.50000000
C   1451.24000000  24.86536539  1.50000000
C   1452.66000000  2.72975607  1.50000000
C   1452.66000000  5.18926822  1.50000000
C   1452.66000000  7.64878037  1.50000000
C   1452.66000000  10.10829251  1.50000000
C   1452.66000000  12.56780466  1.50000000
C   1452.66000000  15.02731681  1.50000000
C   1452.66000000  17.48682895  1.50000000
C   1452.66000000  19.94634110  1.50000000
C   1452.66000000  22.40585325  1.50000000
C   1452.66000000  24.86536539  1.50000000
C   1453.37000000  1.50000000  1.50000000
C   1453.37000000  3.95951215  1.50000000
C   1453.37000000  6.41902429  1.50000000
C   1453.37000000  8.87853644  1.50000000
C   1453.37000000  11.33804859  1.50000000
C   1453.37000000  13.79756073  1.50000000
C   1453.37000000  16.25707288  1.50000000
C   1453.37000000  18.71658503  1.50000000
C   1453.37000000  21.17609717  1.50000000
C   1453.37000000  23.63560932  1.50000000
C   1453.37000000  26.09512147  1.50000000
C   1454.79000000  1.50000000  1.50000000
C   1454.79000000  3.95951215  1.50000000
C   1454.79000000  6.41902429  1.50000000
C   1454.79000000  8.87853644  1.50000000
C   1454.79000000  11.33804859  1.50000000
C   1454.79000000  13.79756073  1.50000000
C   1454.79000000  16.25707288  1.50000000
C   1454.79000000  18.71658503  1.50000000
C   1454.79000000  21.17609717  1.50000000
C   1454.79000000  23.63560932  1.50000000
C   1454.79000000  26.09512147  1.50000000
C   1455.50000000  2.72975607  1.50000000
C   1455.50000000  5.18926822  1.50000000
C   1455.50000000  7.64878037  1.50000000
C   1455.50000000  10.10829251  1.50000000
C   1455.50000000  12.56780466  1.50000000
C   1455.50000000  15.02731681  1.50000000
C   1455.50000000  17.48682895  1.50000000
C   1455.50000000  19.94634110  1.50000000
C   1455.50000000  22.40585325  1.50000000
C   1455.50000000  24.86536539  1.50000000
