   120
Lattice="25.56000000 0.00000000 0.00000000 0.00000000 14.06780466 0.00000000 0.00000000 0.00000000 3.00000000 " nsc="1 1 1" pbc="T F F" boundary_condition="PERIODIC PERIODIC  UNKNOWN UNKNOWN  UNKNOWN UNKNOWN"
C   0.00000000  1.50000000  1.50000000
C   0.00000000  3.95951215  1.50000000
C   0.00000000  6.41902429  1.50000000
C   0.00000000  8.87853644  1.50000000
C   0.00000000  11.33804859  1.50000000
C   0.71000000  2.72975607  1.50000000
C   0.71000000  5.18926822  1.50000000
C   0.71000000  7.64878037  1.50000000
C   0.71000000  10.10829251  1.50000000
C   0.71000000  12.56780466  1.50000000
C   2.13000000  2.72975607  1.50000000
C   2.13000000  5.18926822  1.50000000
C   2.13000000  7.64878037  1.50000000
C   2.13000000  10.10829251  1.50000000
C   2.13000000  12.56780466  1.50000000
C   2.84000000  1.50000000  1.50000000
C   2.84000000  3.95951215  1.50000000
C   2.84000000  6.41902429  1.50000000
C   2.84000000  8.87853644  1.50000000
C   2.84000000  11.33804859  1.50000000
C   4.26000000  1.50000000  1.50000000
C   4.26000000  3.95951215  1.50000000
C   4.26000000  6.41902429  1.50000000
C   4.26000000  8.87853644  1.50000000
C   4.26000000  11.33804859  1.50000000
C   4.97000000  2.72975607  1.50000000
C   4.97000000  5.18926822  1.50000000
C   4.97000000  7.64878037  1.50000000
C   4.97000000  10.10829251  1.50000000
C   4.97000000  12.56780466  1.50000000
C   6.39000000  2.72975607  1.50000000
C   6.39000000  5.18926822  1.50000000
C   6.39000000  7.64878037  1.50000000
C   6.39000000  10.10829251  1.50000000
C   6.39000000  12.56780466  1.50000000
C   7.10000000  1.50000000  1.50000000
C   7.10000000  3.95951215  1.50000000
C   7.10000000  6.41902429  1.50000000
C   7.10000000  8.87853644  1.50000000
C   7.10000000  11.33804859  1.50000000
C   8.52000000  1.50000000  1.50000000
C   8.52000000  3.95951215  1.50000000
C   8.52000000  6.41902429  1.50000000
C   8.52000000  8.87853644  1.50000000
C   8.52000000  11.33804859  1.50000000
C   9.23000000  2.72975607  1.50000000
C   9.23000000  5.18926822  1.50000000
C   9.23000000  7.64878037  1.50000000
C   9.23000000  10.10829251  1.50000000
C   9.23000000  12.56780466  1.50000000
C   10.65000000  2.72975607  1.50000000
C   10.65000000  5.18926822  1.50000000
C   10.65000000  7.64878037  1.50000000
C   10.65000000  10.10829251  1.50000000
C   10.65000000  12.56780466  1.50000000
C   11.36000000  1.50000000  1.50000000
C   11.36000000  3.95951215  1.50000000
C   11.36000000  6.41902429  1.50000000
C   11.36000000  8.87853644  1.50000000
C   11.36000000  11.33804859  1.50000000
C   12.78000000  1.50000000  1.50000000
C   12.78000000  3.95951215  1.50000000
C   12.78000000  6.41902429  1.50000000
C   12.78000000  8.87853644  1.50000000
C   12.78000000  11.33804859  1.50000000
C   13.49000000  2.72975607  1.50000000
C   13.49000000  5.18926822  1.50000000
C   13.49000000  7.64878037  1.50000000
C   13.49000000  10.10829251  1.50000000
C   13.49000000  12.56780466  1.50000000
C   14.91000000  2.72975607  1.50000000
C   14.91000000  5.18926822  1.50000000
C   14.91000000  7.64878037  1.50000000
C   14.91000000  10.10829251  1.50000000
C   14.91000000  12.56780466  1.50000000
C   15.62000000  1.50000000  1.50000000
C   15.62000000  3.95951215  1.50000000
C   15.62000000  6.41902429  1.50000000
C   15.62000000  8.87853644  1.50000000
C   15.62000000  11.33804859  1.50000000
C   17.04000000  1.50000000  1.50000000
C   17.04000000  3.95951215  1.50000000
C   17.04000000  6.41902429  1.50000000
C   17.04000000  8.87853644  1.50000000
C   17.04000000  11.33804859  1.50000000
C   17.75000000  2.72975607  1.50000000
C   17.75000000  5.18926822  1.50000000
C   17.75000000  7.64878037  1.50000000
C   17.75000000  10.10829251  1.50000000
C   17.75000000  12.56780466  1.50000000
C   19.17000000  2.72975607  1.50000000
C   19.17000000  5.18926822  1.50000000
C   19.17000000  7.64878037  1.50000000
C   19.17000000  10.10829251  1.50000000
C   19.17000000  12.56780466  1.50000000
C   19.88000000  1.50000000  1.50000000
C   19.88000000  3.95951215  1.50000000
C   19.88000000  6.41902429  1.50000000
C   19.88000000  8.87853644  1.50000000
C   19.88000000  11.33804859  1.50000000
C   21.30000000  1.50000000  1.50000000
C   21.30000000  3.95951215  1.50000000
C   21.30000000  6.41902429  1.50000000
C   21.30000000  8.87853644  1.50000000
C   21.30000000  11.33804859  1.50000000
C   22.01000000  2.72975607  1.50000000
C   22.01000000  5.18926822  1.50000000
C   22.01000000  7.64878037  1.50000000
C   22.01000000  10.10829251  1.50000000
C   22.01000000  12.56780466  1.50000000
C   23.43000000  2.72975607  1.50000000
C   23.43000000  5.18926822  1.50000000
C   23.43000000  7.64878037  1.50000000
C   23.43000000  10.10829251  1.50000000
C   23.43000000  12.56780466  1.50000000
C   24.14000000  1.50000000  1.50000000
C   24.14000000  3.95951215  1.50000000
C   24.14000000  6.41902429  1.50000000
C   24.14000000  8.87853644  1.50000000
C   24.14000000  11.33804859  1.50000000
