   270
Lattice="63.90000000 0.00000000 0.00000000 0.00000000 12.83804859 0.00000000 0.00000000 0.00000000 3.00000000 " nsc="1 1 1" pbc="T F F" boundary_condition="PERIODIC PERIODIC  UNKNOWN UNKNOWN  UNKNOWN UNKNOWN"
C   0.00000000  2.72975607  1.50000000
C   0.00000000  5.18926822  1.50000000
C   0.00000000  7.64878037  1.50000000
C   0.00000000  10.10829251  1.50000000
C   0.71000000  1.50000000  1.50000000
C   0.71000000  3.95951215  1.50000000
C   0.71000000  6.41902429  1.50000000
C   0.71000000  8.87853644  1.50000000
C   0.71000000  11.33804859  1.50000000
C   2.13000000  1.50000000  1.50000000
C   2.13000000  3.95951215  1.50000000
C   2.13000000  6.41902429  1.50000000
C   2.13000000  8.87853644  1.50000000
C   2.13000000  11.33804859  1.50000000
C   2.84000000  2.72975607  1.50000000
C   2.84000000  5.18926822  1.50000000
C   2.84000000  7.64878037  1.50000000
C   2.84000000  10.10829251  1.50000000
C   4.26000000  2.72975607  1.50000000
C   4.26000000  5.18926822  1.50000000
C   4.26000000  7.64878037  1.50000000
C   4.26000000  10.10829251  1.50000000
C   4.97000000  1.50000000  1.50000000
C   4.97000000  3.95951215  1.50000000
C   4.97000000  6.41902429  1.50000000
C   4.97000000  8.87853644  1.50000000
C   4.97000000  11.33804859  1.50000000
C   6.39000000  1.50000000  1.50000000
C   6.39000000  3.95951215  1.50000000
C   6.39000000  6.41902429  1.50000000
C   6.39000000  8.87853644  1.50000000
C   6.39000000  11.33804859  1.50000000
C   7.10000000  2.72975607  1.50000000
C   7.10000000  5.18926822  1.50000000
C   7.10000000  7.64878037  1.50000000
C   7.10000000  10.10829251  1.50000000
C   8.52000000  2.72975607  1.50000000
C   8.52000000  5.18926822  1.50000000
C   8.52000000  7.64878037  1.50000000
C   8.52000000  10.10829251  1.50000000
C   9.23000000  1.50000000  1.50000000
C   9.23000000  3.95951215  1.50000000
C   9.23000000  6.41902429  1.50000000
C   9.23000000  8.87853644  1.50000000
C   9.23000000  11.33804859  1.50000000
C   10.65000000  1.50000000  1.50000000
C   10.65000000  3.95951215  1.50000000
C   10.65000000  6.41902429  1.50000000
C   10.65000000  8.87853644  1.50000000
C   10.65000000  11.33804859  1.50000000
C   11.36000000  2.72975607  1.50000000
C   11.36000000  5.18926822  1.50000000
C   11.36000000  7.64878037  1.50000000
C   11.36000000  10.10829251  1.50000000
C   12.78000000  2.72975607  1.50000000
C   12.78000000  5.18926822  1.50000000
C   12.78000000  7.64878037  1.50000000
C   12.78000000  10.10829251  1.50000000
C   13.49000000  1.50000000  1.50000000
C   13.49000000  3.95951215  1.50000000
C   13.49000000  6.41902429  1.50000000
C   13.49000000  8.87853644  1.50000000
C   13.49000000  11.33804859  1.50000000
C   14.91000000  1.50000000  1.50000000
C   14.91000000  3.95951215  1.50000000
C   14.91000000  6.41902429  1.50000000
C   14.91000000  8.87853644  1.50000000
C   14.91000000  11.33804859  1.50000000
C   15.62000000  2.72975607  1.50000000
C   15.62000000  5.18926822  1.50000000
C   15.62000000  7.64878037  1.50000000
C   15.62000000  10.10829251  1.50000000
C   17.04000000  2.72975607  1.50000000
C   17.04000000  5.18926822  1.50000000
C   17.04000000  7.64878037  1.50000000
C   17.04000000  10.10829251  1.50000000
C   17.75000000  1.50000000  1.50000000
C   17.75000000  3.95951215  1.50000000
C   17.75000000  6.41902429  1.50000000
C   17.75000000  8.87853644  1.50000000
C   17.75000000  11.33804859  1.50000000
C   19.17000000  1.50000000  1.50000000
C   19.17000000  3.95951215  1.50000000
C   19.17000000  6.41902429  1.50000000
C   19.17000000  8.87853644  1.50000000
C   19.17000000  11.33804859  1.50000000
C   19.88000000  2.72975607  1.50000000
C   19.88000000  5.18926822  1.50000000
C   19.88000000  7.64878037  1.50000000
C   19.88000000  10.10829251  1.50000000
C   21.30000000  2.72975607  1.50000000
C   21.30000000  5.18926822  1.50000000
C   21.30000000  7.64878037  1.50000000
C   21.30000000  10.10829251  1.50000000
C   22.01000000  1.50000000  1.50000000
C   22.01000000  3.95951215  1.50000000
C   22.01000000  6.41902429  1.50000000
C   22.01000000  8.87853644  1.50000000
C   22.01000000  11.33804859  1.50000000
C   23.43000000  1.50000000  1.50000000
C   23.43000000  3.95951215  1.50000000
C   23.43000000  6.41902429  1.50000000
C   23.43000000  8.87853644  1.50000000
C   23.43000000  11.33804859  1.50000000
C   24.14000000  2.72975607  1.50000000
C   24.14000000  5.18926822  1.50000000
C   24.14000000  7.64878037  1.50000000
C   24.14000000  10.10829251  1.50000000
C   25.56000000  2.72975607  1.50000000
C   25.56000000  5.18926822  1.50000000
C   25.56000000  7.64878037  1.50000000
C   25.56000000  10.10829251  1.50000000
C   26.27000000  1.50000000  1.50000000
C   26.27000000  3.95951215  1.50000000
C   26.27000000  6.41902429  1.50000000
C   26.27000000  8.87853644  1.50000000
C   26.27000000  11.33804859  1.50000000
C   27.69000000  1.50000000  1.50000000
C   27.69000000  3.95951215  1.50000000
C   27.69000000  6.41902429  1.50000000
C   27.69000000  8.87853644  1.50000000
C   27.69000000  11.33804859  1.50000000
C   28.40000000  2.72975607  1.50000000
C   28.40000000  5.18926822  1.50000000
C   28.40000000  7.64878037  1.50000000
C   28.40000000  10.10829251  1.50000000
C   29.82000000  2.72975607  1.50000000
C   29.82000000  5.18926822  1.50000000
C   29.82000000  7.64878037  1.50000000
C   29.82000000  10.10829251  1.50000000
C   30.53000000  1.50000000  1.50000000
C   30.53000000  3.95951215  1.50000000
C   30.53000000  6.41902429  1.50000000
C   30.53000000  8.87853644  1.50000000
C   30.53000000  11.33804859  1.50000000
C   31.95000000  1.50000000  1.50000000
C   31.95000000  3.95951215  1.50000000
C   31.95000000  6.41902429  1.50000000
C   31.95000000  8.87853644  1.50000000
C   31.95000000  11.33804859  1.50000000
C   32.66000000  2.72975607  1.50000000
C   32.66000000  5.18926822  1.50000000
C   32.66000000  7.64878037  1.50000000
C   32.66000000  10.10829251  1.50000000
C   34.08000000  2.72975607  1.50000000
C   34.08000000  5.18926822  1.50000000
C   34.08000000  7.64878037  1.50000000
C   34.08000000  10.10829251  1.50000000
C   34.79000000  1.50000000  1.50000000
C   34.79000000  3.95951215  1.50000000
C   34.79000000  6.41902429  1.50000000
C   34.79000000  8.87853644  1.50000000
C   34.79000000  11.33804859  1.50000000
C   36.21000000  1.50000000  1.50000000
C   36.21000000  3.95951215  1.50000000
C   36.21000000  6.41902429  1.50000000
C   36.21000000  8.87853644  1.50000000
C   36.21000000  11.33804859  1.50000000
C   36.92000000  2.72975607  1.50000000
C   36.92000000  5.18926822  1.50000000
C   36.92000000  7.64878037  1.50000000
C   36.92000000  10.10829251  1.50000000
C   38.34000000  2.72975607  1.50000000
C   38.34000000  5.18926822  1.50000000
C   38.34000000  7.64878037  1.50000000
C   38.34000000  10.10829251  1.50000000
C   39.05000000  1.50000000  1.50000000
C   39.05000000  3.95951215  1.50000000
C   39.05000000  6.41902429  1.50000000
C   39.05000000  8.87853644  1.50000000
C   39.05000000  11.33804859  1.50000000
C   40.47000000  1.50000000  1.50000000
C   40.47000000  3.95951215  1.50000000
C   40.47000000  6.41902429  1.50000000
C   40.47000000  8.87853644  1.50000000
C   40.47000000  11.33804859  1.50000000
C   41.18000000  2.72975607  1.50000000
C   41.18000000  5.18926822  1.50000000
C   41.18000000  7.64878037  1.50000000
C   41.18000000  10.10829251  1.50000000
C   42.60000000  2.72975607  1.50000000
C   42.60000000  5.18926822  1.50000000
C   42.60000000  7.64878037  1.50000000
C   42.60000000  10.10829251  1.50000000
C   43.31000000  1.50000000  1.50000000
C   43.31000000  3.95951215  1.50000000
C   43.31000000  6.41902429  1.50000000
C   43.31000000  8.87853644  1.50000000
C   43.31000000  11.33804859  1.50000000
C   44.73000000  1.50000000  1.50000000
C   44.73000000  3.95951215  1.50000000
C   44.73000000  6.41902429  1.50000000
C   44.73000000  8.87853644  1.50000000
C   44.73000000  11.33804859  1.50000000
C   45.44000000  2.72975607  1.50000000
C   45.44000000  5.18926822  1.50000000
C   45.44000000  7.64878037  1.50000000
C   45.44000000  10.10829251  1.50000000
C   46.86000000  2.72975607  1.50000000
C   46.86000000  5.18926822  1.50000000
C   46.86000000  7.64878037  1.50000000
C   46.86000000  10.10829251  1.50000000
C   47.57000000  1.50000000  1.50000000
C   47.57000000  3.95951215  1.50000000
C   47.57000000  6.41902429  1.50000000
C   47.57000000  8.87853644  1.50000000
C   47.57000000  11.33804859  1.50000000
C   48.99000000  1.50000000  1.50000000
C   48.99000000  3.95951215  1.50000000
C   48.99000000  6.41902429  1.50000000
C   48.99000000  8.87853644  1.50000000
C   48.99000000  11.33804859  1.50000000
C   49.70000000  2.72975607  1.50000000
C   49.70000000  5.18926822  1.50000000
C   49.70000000  7.64878037  1.50000000
C   49.70000000  10.10829251  1.50000000
C   51.12000000  2.72975607  1.50000000
C   51.12000000  5.18926822  1.50000000
C   51.12000000  7.64878037  1.50000000
C   51.12000000  10.10829251  1.50000000
C   51.83000000  1.50000000  1.50000000
C   51.83000000  3.95951215  1.50000000
C   51.83000000  6.41902429  1.50000000
C   51.83000000  8.87853644  1.50000000
C   51.83000000  11.33804859  1.50000000
C   53.25000000  1.50000000  1.50000000
C   53.25000000  3.95951215  1.50000000
C   53.25000000  6.41902429  1.50000000
C   53.25000000  8.87853644  1.50000000
C   53.25000000  11.33804859  1.50000000
C   53.96000000  2.72975607  1.50000000
C   53.96000000  5.18926822  1.50000000
C   53.96000000  7.64878037  1.50000000
C   53.96000000  10.10829251  1.50000000
C   55.38000000  2.72975607  1.50000000
C   55.38000000  5.18926822  1.50000000
C   55.38000000  7.64878037  1.50000000
C   55.38000000  10.10829251  1.50000000
C   56.09000000  1.50000000  1.50000000
C   56.09000000  3.95951215  1.50000000
C   56.09000000  6.41902429  1.50000000
C   56.09000000  8.87853644  1.50000000
C   56.09000000  11.33804859  1.50000000
C   57.51000000  1.50000000  1.50000000
C   57.51000000  3.95951215  1.50000000
C   57.51000000  6.41902429  1.50000000
C   57.51000000  8.87853644  1.50000000
C   57.51000000  11.33804859  1.50000000
C   58.22000000  2.72975607  1.50000000
C   58.22000000  5.18926822  1.50000000
C   58.22000000  7.64878037  1.50000000
C   58.22000000  10.10829251  1.50000000
C   59.64000000  2.72975607  1.50000000
C   59.64000000  5.18926822  1.50000000
C   59.64000000  7.64878037  1.50000000
C   59.64000000  10.10829251  1.50000000
C   60.35000000  1.50000000  1.50000000
C   60.35000000  3.95951215  1.50000000
C   60.35000000  6.41902429  1.50000000
C   60.35000000  8.87853644  1.50000000
C   60.35000000  11.33804859  1.50000000
C   61.77000000  1.50000000  1.50000000
C   61.77000000  3.95951215  1.50000000
C   61.77000000  6.41902429  1.50000000
C   61.77000000  8.87853644  1.50000000
C   61.77000000  11.33804859  1.50000000
C   62.48000000  2.72975607  1.50000000
C   62.48000000  5.18926822  1.50000000
C   62.48000000  7.64878037  1.50000000
C   62.48000000  10.10829251  1.50000000
